10560
core_RIVDIL
C  34.158888  21.833476  6.530130
H  34.359302  22.636414  6.057360
C  34.954760  20.730562  6.302096
C  34.655425  19.551207  6.948300
H  35.207203  18.782314  6.847451
C  33.531955  19.516520  7.748026
H  33.248036  18.698809  8.138575
C  32.823443  20.665042  7.979272
H  32.091806  20.632282  8.588220
C  38.637995  26.116666  62.243715
C  37.587753  25.094687  1.074652
H  37.641710  25.771082  0.411104
C  36.504751  25.101111  1.900714
H  35.855977  25.790353  1.843544
C  36.372426  24.084913  2.819274
H  35.631155  24.056007  3.410878
C  37.355222  23.095052  2.861027
C  38.413172  23.198470  2.000920
H  39.067727  22.514367  2.023402
C  37.258869  21.972866  3.843180
C  38.221752  20.219893  4.862590
C  36.134115  20.859674  5.436208
C  39.365135  18.476555  6.204459
H  38.605235  18.461139  6.770369
C  39.374770  19.384196  5.114391
C  40.523292  19.447789  4.360272
H  40.590097  20.060590  3.642124
C  41.575461  18.615945  4.656395
H  42.382253  18.653844  4.162428
C  41.427079  17.720509  5.692506
H  42.138160  17.112204  5.858232
C  36.968527  15.988092  7.830246
C  40.969083  14.932710  10.758078
H  41.617857  15.621952  10.695127
C  40.934396  14.199789  11.869986
H  41.572892  14.343675  12.557943
C  39.940681  13.207358  12.015157
H  39.870665  12.692836  12.808459
C  39.072223  13.011442  10.946929
C  39.186562  13.824014  9.830524
H  38.560270  13.707749  9.127794
C  38.031616  11.997171  11.009237
N  33.120208  21.841827  7.380602
N  39.392114  25.395307  62.751814
N  38.584680  24.198609  1.128609
N  36.170086  21.876514  4.555546
N  38.321316  21.182776  3.945314
N  37.111129  20.009845  5.623132
N  40.356923  17.656917  6.471034
N  40.116042  14.752852  9.689207
N  38.089428  16.124270  7.896409
N  37.096355  12.003594  10.057274
S  37.535722  27.143784  61.654680
S  35.313191  15.828146  7.758946
C  34.158888  53.950976  38.647630
H  34.359302  54.753914  38.174861
C  34.954760  52.848062  38.419596
C  34.655425  51.668707  39.065800
H  35.207203  50.899814  38.964951
C  33.531955  51.634020  39.865526
H  33.248036  50.816308  40.256075
C  32.823443  52.782542  40.096772
H  32.091806  52.749782  40.705720
C  38.637995  58.234166  30.126215
C  37.587753  57.212187  33.192152
H  37.641710  57.888582  32.528604
C  36.504751  57.218611  34.018214
H  35.855977  57.907852  33.961044
C  36.372426  56.202413  34.936774
H  35.631155  56.173508  35.528379
C  37.355222  55.212552  34.978527
C  38.413172  55.315970  34.118420
H  39.067727  54.631867  34.140902
C  37.258869  54.090366  35.960680
C  38.221752  52.337393  36.980089
C  36.134115  52.977174  37.553708
C  39.365135  50.594055  38.321959
H  38.605235  50.578639  38.887869
C  39.374770  51.501696  37.231891
C  40.523292  51.565289  36.477772
H  40.590097  52.178091  35.759625
C  41.575461  50.733445  36.773895
H  42.382253  50.771344  36.279928
C  41.427079  49.838009  37.810006
H  42.138160  49.229704  37.975732
C  36.968527  48.105592  39.947747
C  40.969083  47.050210  42.875578
H  41.617857  47.739452  42.812627
C  40.934396  46.317289  43.987486
H  41.572892  46.461176  44.675443
C  39.940681  45.324858  44.132657
H  39.870665  44.810336  44.925959
C  39.072223  45.128942  43.064429
C  39.186562  45.941514  41.948024
H  38.560270  45.825249  41.245294
C  38.031616  44.114671  43.126737
N  33.120208  53.959327  39.498101
N  39.392114  57.512807  30.634314
N  38.584680  56.316109  33.246109
N  36.170086  53.994014  36.673046
N  38.321316  53.300276  36.062814
N  37.111129  52.127345  37.740632
N  40.356923  49.774417  38.588534
N  40.116042  46.870352  41.806707
N  38.089428  48.241770  40.013909
N  37.096355  44.121094  42.174774
S  37.535722  59.261284  29.537180
S  35.313191  47.945646  39.876446
C  2.041388  21.833476  38.647630
H  2.241802  22.636414  38.174861
C  2.837260  20.730562  38.419596
C  2.537925  19.551207  39.065800
H  3.089703  18.782314  38.964951
C  1.414455  19.516520  39.865526
H  1.130536  18.698809  40.256075
C  0.705943  20.665042  40.096772
H  64.209306  20.632282  40.705720
C  6.520495  26.116666  30.126215
C  5.470253  25.094687  33.192152
H  5.524210  25.771082  32.528604
C  4.387250  25.101111  34.018214
H  3.738477  25.790353  33.961044
C  4.254926  24.084913  34.936774
H  3.513654  24.056007  35.528379
C  5.237722  23.095052  34.978527
C  6.295672  23.198470  34.118420
H  6.950227  22.514367  34.140902
C  5.141369  21.972866  35.960680
C  6.104252  20.219893  36.980089
C  4.016615  20.859674  37.553708
C  7.247635  18.476555  38.321959
H  6.487735  18.461139  38.887869
C  7.257270  19.384196  37.231891
C  8.405792  19.447789  36.477772
H  8.472596  20.060590  35.759625
C  9.457961  18.615945  36.773895
H  10.264753  18.653844  36.279928
C  9.309579  17.720509  37.810006
H  10.020660  17.112204  37.975732
C  4.851027  15.988092  39.947747
C  8.851583  14.932710  42.875578
H  9.500357  15.621952  42.812627
C  8.816896  14.199789  43.987486
H  9.455392  14.343675  44.675443
C  7.823181  13.207358  44.132657
H  7.753165  12.692836  44.925959
C  6.954723  13.011442  43.064429
C  7.069062  13.824014  41.948024
H  6.442770  13.707749  41.245294
C  5.914116  11.997171  43.126737
N  1.002708  21.841827  39.498101
N  7.274614  25.395307  30.634314
N  6.467180  24.198609  33.246109
N  4.052586  21.876514  36.673046
N  6.203816  21.182776  36.062814
N  4.993629  20.009845  37.740632
N  8.239423  17.656917  38.588534
N  7.998542  14.752852  41.806707
N  5.971928  16.124270  40.013909
N  4.978855  12.003594  42.174774
S  5.418222  27.143784  29.537180
S  3.195691  15.828146  39.876446
C  2.041388  53.950976  6.530130
H  2.241802  54.753914  6.057360
C  2.837260  52.848062  6.302096
C  2.537925  51.668707  6.948300
H  3.089703  50.899814  6.847451
C  1.414455  51.634020  7.748026
H  1.130536  50.816308  8.138575
C  0.705943  52.782542  7.979272
H  64.209306  52.749782  8.588220
C  6.520495  58.234166  62.243715
C  5.470253  57.212187  1.074652
H  5.524210  57.888582  0.411104
C  4.387250  57.218611  1.900714
H  3.738477  57.907852  1.843544
C  4.254926  56.202413  2.819274
H  3.513654  56.173508  3.410878
C  5.237722  55.212552  2.861027
C  6.295672  55.315970  2.000920
H  6.950227  54.631867  2.023402
C  5.141369  54.090366  3.843180
C  6.104252  52.337393  4.862590
C  4.016615  52.977174  5.436208
C  7.247635  50.594055  6.204459
H  6.487735  50.578639  6.770369
C  7.257270  51.501696  5.114391
C  8.405792  51.565289  4.360272
H  8.472596  52.178091  3.642124
C  9.457961  50.733445  4.656395
H  10.264753  50.771344  4.162428
C  9.309579  49.838009  5.692506
H  10.020660  49.229704  5.858232
C  4.851027  48.105592  7.830246
C  8.851583  47.050210  10.758078
H  9.500357  47.739452  10.695127
C  8.816896  46.317289  11.869986
H  9.455392  46.461176  12.557943
C  7.823181  45.324858  12.015157
H  7.753165  44.810336  12.808459
C  6.954723  45.128942  10.946929
C  7.069062  45.941514  9.830524
H  6.442770  45.825249  9.127794
C  5.914116  44.114671  11.009237
N  1.002708  53.959327  7.380602
N  7.274614  57.512807  62.751814
N  6.467180  56.316109  1.128609
N  4.052586  53.994014  4.555546
N  6.203816  53.300276  3.945314
N  4.993629  52.127345  5.623132
N  8.239423  49.774417  6.471034
N  7.998542  46.870352  9.689207
N  5.971928  48.241770  7.896409
N  4.978855  44.121094  10.057274
S  5.418222  59.261284  61.654680
S  3.195691  47.945646  7.758946
C  46.134862  26.342773  38.647630
H  45.934448  25.539836  38.174861
C  45.338990  27.445688  38.419596
C  45.638325  28.625043  39.065800
H  45.086546  29.393936  38.964951
C  46.761795  28.659730  39.865526
H  47.045714  29.477441  40.256075
C  47.470307  27.511208  40.096772
H  48.201944  27.543968  40.705720
C  41.655755  22.059584  30.126215
C  42.705997  23.081563  33.192152
H  42.652040  22.405168  32.528604
C  43.788999  23.075139  34.018214
H  44.437773  22.385897  33.961044
C  43.921324  24.091337  34.936774
H  44.662596  24.120242  35.528379
C  42.938528  25.081198  34.978527
C  41.880578  24.977780  34.118420
H  41.226023  25.661883  34.140902
C  43.034881  26.203384  35.960680
C  42.071998  27.956357  36.980089
C  44.159635  27.316576  37.553708
C  40.928615  29.699695  38.321959
H  41.688515  29.715111  38.887869
C  40.918980  28.792054  37.231891
C  39.770458  28.728461  36.477772
H  39.703654  28.115659  35.759625
C  38.718289  29.560305  36.773895
H  37.911497  29.522406  36.279928
C  38.866671  30.455741  37.810006
H  38.155590  31.064046  37.975732
C  43.325223  32.188159  39.947747
C  39.324667  33.243540  42.875578
H  38.675894  32.554298  42.812627
C  39.359354  33.976461  43.987486
H  38.720858  33.832574  44.675443
C  40.353069  34.968892  44.132657
H  40.423085  35.483414  44.925959
C  41.221527  35.164808  43.064429
C  41.107188  34.352236  41.948024
H  41.733480  34.468501  41.245294
C  42.262134  36.179079  43.126737
N  47.173542  26.334423  39.498101
N  40.901636  22.780943  30.634314
N  41.709070  23.977641  33.246109
N  44.123664  26.299736  36.673046
N  41.972434  26.993474  36.062814
N  43.182621  28.166405  37.740632
N  39.936827  30.519333  38.588534
N  40.177708  33.423398  41.806707
N  42.204322  32.051980  40.013909
N  43.197395  36.172656  42.174774
S  42.758028  21.032466  29.537180
S  44.980559  32.348104  39.876446
C  46.134862  58.460273  6.530130
H  45.934448  57.657336  6.057360
C  45.338990  59.563188  6.302096
C  45.638325  60.742543  6.948300
H  45.086546  61.511436  6.847451
C  46.761795  60.777230  7.748026
H  47.045714  61.594941  8.138575
C  47.470307  59.628708  7.979272
H  48.201944  59.661468  8.588220
C  41.655755  54.177084  62.243715
C  42.705997  55.199063  1.074652
H  42.652040  54.522668  0.411104
C  43.788999  55.192639  1.900714
H  44.437773  54.503397  1.843544
C  43.921324  56.208837  2.819274
H  44.662596  56.237742  3.410878
C  42.938528  57.198698  2.861027
C  41.880578  57.095280  2.000920
H  41.226023  57.779382  2.023402
C  43.034881  58.320884  3.843180
C  42.071998  60.073857  4.862590
C  44.159635  59.434076  5.436208
C  40.928615  61.817195  6.204459
H  41.688515  61.832611  6.770369
C  40.918980  60.909554  5.114391
C  39.770458  60.845961  4.360272
H  39.703654  60.233159  3.642124
C  38.718289  61.677805  4.656395
H  37.911497  61.639906  4.162428
C  38.866671  62.573241  5.692506
H  38.155590  63.181546  5.858232
C  43.325223  0.070658  7.830246
C  39.324667  1.126040  10.758078
H  38.675894  0.436798  10.695127
C  39.359354  1.858961  11.869986
H  38.720858  1.715075  12.557943
C  40.353069  2.851392  12.015157
H  40.423085  3.365914  12.808459
C  41.221527  3.047308  10.946929
C  41.107188  2.234736  9.830524
H  41.733480  2.351001  9.127794
C  42.262134  4.061579  11.009237
N  47.173542  58.451923  7.380602
N  40.901636  54.898443  62.751814
N  41.709070  56.095141  1.128609
N  44.123664  58.417236  4.555546
N  41.972434  59.110974  3.945314
N  43.182621  60.283905  5.623132
N  39.936827  62.636833  6.471034
N  40.177708  1.305898  9.689207
N  42.204322  64.169480  7.896409
N  43.197395  4.055156  10.057274
S  42.758028  53.149966  61.654680
S  44.980559  0.230604  7.758946
C  14.017362  26.342773  6.530130
H  13.816949  25.539836  6.057360
C  13.221490  27.445688  6.302096
C  13.520825  28.625043  6.948300
H  12.969046  29.393936  6.847451
C  14.644295  28.659730  7.748026
H  14.928214  29.477441  8.138575
C  15.352807  27.511208  7.979272
H  16.084444  27.543968  8.588220
C  9.538255  22.059584  62.243715
C  10.588497  23.081563  1.074652
H  10.534540  22.405168  0.411104
C  11.671499  23.075139  1.900714
H  12.320273  22.385897  1.843544
C  11.803824  24.091337  2.819274
H  12.545096  24.120242  3.410878
C  10.821028  25.081198  2.861027
C  9.763078  24.977780  2.000920
H  9.108523  25.661883  2.023402
C  10.917381  26.203384  3.843180
C  9.954498  27.956357  4.862590
C  12.042135  27.316576  5.436208
C  8.811115  29.699695  6.204459
H  9.571015  29.715111  6.770369
C  8.801480  28.792054  5.114391
C  7.652958  28.728461  4.360272
H  7.586153  28.115659  3.642124
C  6.600789  29.560305  4.656395
H  5.793997  29.522406  4.162428
C  6.749171  30.455741  5.692506
H  6.038090  31.064046  5.858232
C  11.207723  32.188159  7.830246
C  7.207167  33.243540  10.758078
H  6.558393  32.554298  10.695127
C  7.241854  33.976461  11.869986
H  6.603358  33.832574  12.557943
C  8.235569  34.968892  12.015157
H  8.305585  35.483414  12.808459
C  9.104027  35.164808  10.946929
C  8.989688  34.352236  9.830524
H  9.615979  34.468501  9.127794
C  10.144634  36.179079  11.009237
N  15.056042  26.334423  7.380602
N  8.784136  22.780943  62.751814
N  9.591570  23.977641  1.128609
N  12.006164  26.299736  4.555546
N  9.854934  26.993474  3.945314
N  11.065121  28.166405  5.623132
N  7.819327  30.519333  6.471034
N  8.060208  33.423398  9.689207
N  10.086822  32.051980  7.896409
N  11.079895  36.172656  10.057274
S  10.640528  21.032466  61.654680
S  12.863059  32.348104  7.758946
C  14.017362  58.460273  38.647630
H  13.816949  57.657336  38.174861
C  13.221490  59.563188  38.419596
C  13.520825  60.742543  39.065800
H  12.969046  61.511436  38.964951
C  14.644295  60.777230  39.865526
H  14.928214  61.594941  40.256075
C  15.352807  59.628708  40.096772
H  16.084444  59.661468  40.705720
C  9.538255  54.177084  30.126215
C  10.588497  55.199063  33.192152
H  10.534540  54.522668  32.528604
C  11.671499  55.192639  34.018214
H  12.320273  54.503397  33.961044
C  11.803824  56.208837  34.936774
H  12.545096  56.237742  35.528379
C  10.821028  57.198698  34.978527
C  9.763078  57.095280  34.118420
H  9.108523  57.779382  34.140902
C  10.917381  58.320884  35.960680
C  9.954498  60.073857  36.980089
C  12.042135  59.434076  37.553708
C  8.811115  61.817195  38.321959
H  9.571015  61.832611  38.887869
C  8.801480  60.909554  37.231891
C  7.652958  60.845961  36.477772
H  7.586153  60.233159  35.759625
C  6.600789  61.677805  36.773895
H  5.793997  61.639906  36.279928
C  6.749171  62.573241  37.810006
H  6.038090  63.181546  37.975732
C  11.207723  0.070658  39.947747
C  7.207167  1.126040  42.875578
H  6.558393  0.436798  42.812627
C  7.241854  1.858961  43.987486
H  6.603358  1.715075  44.675443
C  8.235569  2.851392  44.132657
H  8.305585  3.365914  44.925959
C  9.104027  3.047308  43.064429
C  8.989688  2.234736  41.948024
H  9.615979  2.351001  41.245294
C  10.144634  4.061579  43.126737
N  15.056042  58.451923  39.498101
N  8.784136  54.898443  30.634314
N  9.591570  56.095141  33.246109
N  12.006164  58.417236  36.673046
N  9.854934  59.110974  36.062814
N  11.065121  60.283905  37.740632
N  7.819327  62.636833  38.588534
N  8.060208  1.305898  41.806707
N  10.086822  64.169480  40.013909
N  11.079895  4.055156  42.174774
S  10.640528  53.149966  29.537180
S  12.863059  0.230604  39.876446
C  14.017362  53.950976  9.528620
H  13.816949  54.753914  10.001390
C  13.221490  52.848062  9.756654
C  13.520825  51.668707  9.110450
H  12.969046  50.899814  9.211299
C  14.644295  51.634020  8.310724
H  14.928214  50.816308  7.920176
C  15.352807  52.782542  8.079478
H  16.084444  52.749782  7.470530
C  9.538255  58.234166  18.050035
C  10.588497  57.212187  14.984098
H  10.534540  57.888582  15.647646
C  11.671499  57.218611  14.158036
H  12.320273  57.907852  14.215205
C  11.803824  56.202413  13.239476
H  12.545096  56.173508  12.647871
C  10.821028  55.212552  13.197723
C  9.763078  55.315970  14.057830
H  9.108523  54.631867  14.035348
C  10.917381  54.090366  12.215570
C  9.954498  52.337393  11.196161
C  12.042135  52.977174  10.622542
C  8.811115  50.594055  9.854291
H  9.571015  50.578639  9.288381
C  8.801480  51.501696  10.944359
C  7.652958  51.565289  11.698478
H  7.586153  52.178091  12.416626
C  6.600789  50.733445  11.402355
H  5.793997  50.771344  11.896322
C  6.749171  49.838009  10.366244
H  6.038090  49.229704  10.200518
C  11.207723  48.105592  8.228503
C  7.207167  47.050210  5.300672
H  6.558393  47.739452  5.363622
C  7.241854  46.317289  4.188764
H  6.603358  46.461176  3.500808
C  8.235569  45.324858  4.043593
H  8.305585  44.810336  3.250291
C  9.104027  45.128942  5.111821
C  8.989688  45.941514  6.228226
H  9.615979  45.825249  6.930956
C  10.144634  44.114671  5.049513
N  15.056042  53.959327  8.678148
N  8.784136  57.512807  17.541936
N  9.591570  56.316109  14.930141
N  12.006164  53.994014  11.503204
N  9.854934  53.300276  12.113436
N  11.065121  52.127345  10.435618
N  7.819327  49.774417  9.587716
N  8.060208  46.870352  6.369543
N  10.086822  48.241770  8.162341
N  11.079895  44.121094  6.001476
S  10.640528  59.261284  18.639070
S  12.863059  47.945646  8.299804
C  14.017362  21.833476  41.646120
H  13.816949  22.636414  42.118889
C  13.221490  20.730562  41.874154
C  13.520825  19.551207  41.227950
H  12.969046  18.782314  41.328799
C  14.644295  19.516520  40.428224
H  14.928214  18.698809  40.037675
C  15.352807  20.665042  40.196978
H  16.084444  20.632282  39.588030
C  9.538255  26.116666  50.167535
C  10.588497  25.094687  47.101598
H  10.534540  25.771082  47.765146
C  11.671499  25.101111  46.275536
H  12.320273  25.790353  46.332706
C  11.803824  24.084913  45.356976
H  12.545096  24.056007  44.765372
C  10.821028  23.095052  45.315223
C  9.763078  23.198470  46.175330
H  9.108523  22.514367  46.152848
C  10.917381  21.972866  44.333070
C  9.954498  20.219893  43.313660
C  12.042135  20.859674  42.740042
C  8.811115  18.476555  41.971791
H  9.571015  18.461139  41.405881
C  8.801480  19.384196  43.061859
C  7.652958  19.447789  43.815978
H  7.586153  20.060590  44.534126
C  6.600789  18.615945  43.519855
H  5.793997  18.653844  44.013822
C  6.749171  17.720509  42.483744
H  6.038090  17.112204  42.318018
C  11.207723  15.988092  40.346004
C  7.207167  14.932710  37.418172
H  6.558393  15.621952  37.481122
C  7.241854  14.199789  36.306264
H  6.603358  14.343675  35.618308
C  8.235569  13.207358  36.161093
H  8.305585  12.692836  35.367791
C  9.104027  13.011442  37.229321
C  8.989688  13.824014  38.345726
H  9.615979  13.707749  39.048457
C  10.144634  11.997171  37.167013
N  15.056042  21.841827  40.795648
N  8.784136  25.395307  49.659436
N  9.591570  24.198609  47.047641
N  12.006164  21.876514  43.620704
N  9.854934  21.182776  44.230936
N  11.065121  20.009845  42.553118
N  7.819327  17.656917  41.705216
N  8.060208  14.752852  38.487043
N  10.086822  16.124270  40.279841
N  11.079895  12.003594  38.118976
S  10.640528  27.143784  50.756570
S  12.863059  15.828146  40.417304
C  46.134862  53.950976  41.646120
H  45.934448  54.753914  42.118889
C  45.338990  52.848062  41.874154
C  45.638325  51.668707  41.227950
H  45.086546  50.899814  41.328799
C  46.761795  51.634020  40.428224
H  47.045714  50.816308  40.037675
C  47.470307  52.782542  40.196978
H  48.201944  52.749782  39.588030
C  41.655755  58.234166  50.167535
C  42.705997  57.212187  47.101598
H  42.652040  57.888582  47.765146
C  43.788999  57.218611  46.275536
H  44.437773  57.907852  46.332706
C  43.921324  56.202413  45.356976
H  44.662596  56.173508  44.765372
C  42.938528  55.212552  45.315223
C  41.880578  55.315970  46.175330
H  41.226023  54.631867  46.152848
C  43.034881  54.090366  44.333070
C  42.071998  52.337393  43.313660
C  44.159635  52.977174  42.740042
C  40.928615  50.594055  41.971791
H  41.688515  50.578639  41.405881
C  40.918980  51.501696  43.061859
C  39.770458  51.565289  43.815978
H  39.703654  52.178091  44.534126
C  38.718289  50.733445  43.519855
H  37.911497  50.771344  44.013822
C  38.866671  49.838009  42.483744
H  38.155590  49.229704  42.318018
C  43.325223  48.105592  40.346004
C  39.324667  47.050210  37.418172
H  38.675894  47.739452  37.481122
C  39.359354  46.317289  36.306264
H  38.720858  46.461176  35.618308
C  40.353069  45.324858  36.161093
H  40.423085  44.810336  35.367791
C  41.221527  45.128942  37.229321
C  41.107188  45.941514  38.345726
H  41.733480  45.825249  39.048457
C  42.262134  44.114671  37.167013
N  47.173542  53.959327  40.795648
N  40.901636  57.512807  49.659436
N  41.709070  56.316109  47.047641
N  44.123664  53.994014  43.620704
N  41.972434  53.300276  44.230936
N  43.182621  52.127345  42.553118
N  39.936827  49.774417  41.705216
N  40.177708  46.870352  38.487043
N  42.204322  48.241770  40.279841
N  43.197395  44.121094  38.118976
S  42.758028  59.261284  50.756570
S  44.980559  47.945646  40.417304
C  46.134862  21.833476  9.528620
H  45.934448  22.636414  10.001390
C  45.338990  20.730562  9.756654
C  45.638325  19.551207  9.110450
H  45.086546  18.782314  9.211299
C  46.761795  19.516520  8.310724
H  47.045714  18.698809  7.920176
C  47.470307  20.665042  8.079478
H  48.201944  20.632282  7.470530
C  41.655755  26.116666  18.050035
C  42.705997  25.094687  14.984098
H  42.652040  25.771082  15.647646
C  43.788999  25.101111  14.158036
H  44.437773  25.790353  14.215205
C  43.921324  24.084913  13.239476
H  44.662596  24.056007  12.647871
C  42.938528  23.095052  13.197723
C  41.880578  23.198470  14.057830
H  41.226023  22.514367  14.035348
C  43.034881  21.972866  12.215570
C  42.071998  20.219893  11.196161
C  44.159635  20.859674  10.622542
C  40.928615  18.476555  9.854291
H  41.688515  18.461139  9.288381
C  40.918980  19.384196  10.944359
C  39.770458  19.447789  11.698478
H  39.703654  20.060590  12.416626
C  38.718289  18.615945  11.402355
H  37.911497  18.653844  11.896322
C  38.866671  17.720509  10.366244
H  38.155590  17.112204  10.200518
C  43.325223  15.988092  8.228503
C  39.324667  14.932710  5.300672
H  38.675894  15.621952  5.363622
C  39.359354  14.199789  4.188764
H  38.720858  14.343675  3.500808
C  40.353069  13.207358  4.043593
H  40.423085  12.692836  3.250291
C  41.221527  13.011442  5.111821
C  41.107188  13.824014  6.228226
H  41.733480  13.707749  6.930956
C  42.262134  11.997171  5.049513
N  47.173542  21.841827  8.678148
N  40.901636  25.395307  17.541936
N  41.709070  24.198609  14.930141
N  44.123664  21.876514  11.503204
N  41.972434  21.182776  12.113436
N  43.182621  20.009845  10.435618
N  39.936827  17.656917  9.587716
N  40.177708  14.752852  6.369543
N  42.204322  16.124270  8.162341
N  43.197395  12.003594  6.001476
S  42.758028  27.143784  18.639070
S  44.980559  15.828146  8.299804
C  2.041388  58.460273  41.646120
H  2.241802  57.657336  42.118889
C  2.837260  59.563188  41.874154
C  2.537925  60.742543  41.227950
H  3.089703  61.511436  41.328799
C  1.414455  60.777230  40.428224
H  1.130536  61.594941  40.037675
C  0.705943  59.628708  40.196978
H  64.209306  59.661468  39.588030
C  6.520495  54.177084  50.167535
C  5.470253  55.199063  47.101598
H  5.524210  54.522668  47.765146
C  4.387250  55.192639  46.275536
H  3.738477  54.503397  46.332706
C  4.254926  56.208837  45.356976
H  3.513654  56.237742  44.765372
C  5.237722  57.198698  45.315223
C  6.295672  57.095280  46.175330
H  6.950227  57.779382  46.152848
C  5.141369  58.320884  44.333070
C  6.104252  60.073857  43.313660
C  4.016615  59.434076  42.740042
C  7.247635  61.817195  41.971791
H  6.487735  61.832611  41.405881
C  7.257270  60.909554  43.061859
C  8.405792  60.845961  43.815978
H  8.472596  60.233159  44.534126
C  9.457961  61.677805  43.519855
H  10.264753  61.639906  44.013822
C  9.309579  62.573241  42.483744
H  10.020660  63.181546  42.318018
C  4.851027  0.070658  40.346004
C  8.851583  1.126040  37.418172
H  9.500357  0.436798  37.481122
C  8.816896  1.858961  36.306264
H  9.455392  1.715075  35.618308
C  7.823181  2.851392  36.161093
H  7.753165  3.365914  35.367791
C  6.954723  3.047308  37.229321
C  7.069062  2.234736  38.345726
H  6.442770  2.351001  39.048457
C  5.914116  4.061579  37.167013
N  1.002708  58.451923  40.795648
N  7.274614  54.898443  49.659436
N  6.467180  56.095141  47.047641
N  4.052586  58.417236  43.620704
N  6.203816  59.110974  44.230936
N  4.993629  60.283905  42.553118
N  8.239423  62.636833  41.705216
N  7.998542  1.305898  38.487043
N  5.971928  64.169480  40.279841
N  4.978855  4.055156  38.118976
S  5.418222  53.149966  50.756570
S  3.195691  0.230604  40.417304
C  2.041388  26.342773  9.528620
H  2.241802  25.539836  10.001390
C  2.837260  27.445688  9.756654
C  2.537925  28.625043  9.110450
H  3.089703  29.393936  9.211299
C  1.414455  28.659730  8.310724
H  1.130536  29.477441  7.920176
C  0.705943  27.511208  8.079478
H  64.209306  27.543968  7.470530
C  6.520495  22.059584  18.050035
C  5.470253  23.081563  14.984098
H  5.524210  22.405168  15.647646
C  4.387250  23.075139  14.158036
H  3.738477  22.385897  14.215205
C  4.254926  24.091337  13.239476
H  3.513654  24.120242  12.647871
C  5.237722  25.081198  13.197723
C  6.295672  24.977780  14.057830
H  6.950227  25.661883  14.035348
C  5.141369  26.203384  12.215570
C  6.104252  27.956357  11.196161
C  4.016615  27.316576  10.622542
C  7.247635  29.699695  9.854291
H  6.487735  29.715111  9.288381
C  7.257270  28.792054  10.944359
C  8.405792  28.728461  11.698478
H  8.472596  28.115659  12.416626
C  9.457961  29.560305  11.402355
H  10.264753  29.522406  11.896322
C  9.309579  30.455741  10.366244
H  10.020660  31.064046  10.200518
C  4.851027  32.188159  8.228503
C  8.851583  33.243540  5.300672
H  9.500357  32.554298  5.363622
C  8.816896  33.976461  4.188764
H  9.455392  33.832574  3.500808
C  7.823181  34.968892  4.043593
H  7.753165  35.483414  3.250291
C  6.954723  35.164808  5.111821
C  7.069062  34.352236  6.228226
H  6.442770  34.468501  6.930956
C  5.914116  36.179079  5.049513
N  1.002708  26.334423  8.678148
N  7.274614  22.780943  17.541936
N  6.467180  23.977641  14.930141
N  4.052586  26.299736  11.503204
N  6.203816  26.993474  12.113436
N  4.993629  28.166405  10.435618
N  8.239423  30.519333  9.587716
N  7.998542  33.423398  6.369543
N  5.971928  32.051980  8.162341
N  4.978855  36.172656  6.001476
S  5.418222  21.032466  18.639070
S  3.195691  32.348104  8.299804
C  34.158888  58.460273  9.528620
H  34.359302  57.657336  10.001390
C  34.954760  59.563188  9.756654
C  34.655425  60.742543  9.110450
H  35.207203  61.511436  9.211299
C  33.531955  60.777230  8.310724
H  33.248036  61.594941  7.920176
C  32.823443  59.628708  8.079478
H  32.091806  59.661468  7.470530
C  38.637995  54.177084  18.050035
C  37.587753  55.199063  14.984098
H  37.641710  54.522668  15.647646
C  36.504751  55.192639  14.158036
H  35.855977  54.503397  14.215205
C  36.372426  56.208837  13.239476
H  35.631155  56.237742  12.647871
C  37.355222  57.198698  13.197723
C  38.413172  57.095280  14.057830
H  39.067727  57.779382  14.035348
C  37.258869  58.320884  12.215570
C  38.221752  60.073857  11.196161
C  36.134115  59.434076  10.622542
C  39.365135  61.817195  9.854291
H  38.605235  61.832611  9.288381
C  39.374770  60.909554  10.944359
C  40.523292  60.845961  11.698478
H  40.590097  60.233159  12.416626
C  41.575461  61.677805  11.402355
H  42.382253  61.639906  11.896322
C  41.427079  62.573241  10.366244
H  42.138160  63.181546  10.200518
C  36.968527  0.070658  8.228503
C  40.969083  1.126040  5.300672
H  41.617857  0.436798  5.363622
C  40.934396  1.858961  4.188764
H  41.572892  1.715075  3.500808
C  39.940681  2.851392  4.043593
H  39.870665  3.365914  3.250291
C  39.072223  3.047308  5.111821
C  39.186562  2.234736  6.228226
H  38.560270  2.351001  6.930956
C  38.031616  4.061579  5.049513
N  33.120208  58.451923  8.678148
N  39.392114  54.898443  17.541936
N  38.584680  56.095141  14.930141
N  36.170086  58.417236  11.503204
N  38.321316  59.110974  12.113436
N  37.111129  60.283905  10.435618
N  40.356923  62.636833  9.587716
N  40.116042  1.305898  6.369543
N  38.089428  64.169480  8.162341
N  37.096355  4.055156  6.001476
S  37.535722  53.149966  18.639070
S  35.313191  0.230604  8.299804
C  34.158888  26.342773  41.646120
H  34.359302  25.539836  42.118889
C  34.954760  27.445688  41.874154
C  34.655425  28.625043  41.227950
H  35.207203  29.393936  41.328799
C  33.531955  28.659730  40.428224
H  33.248036  29.477441  40.037675
C  32.823443  27.511208  40.196978
H  32.091806  27.543968  39.588030
C  38.637995  22.059584  50.167535
C  37.587753  23.081563  47.101598
H  37.641710  22.405168  47.765146
C  36.504751  23.075139  46.275536
H  35.855977  22.385897  46.332706
C  36.372426  24.091337  45.356976
H  35.631155  24.120242  44.765372
C  37.355222  25.081198  45.315223
C  38.413172  24.977780  46.175330
H  39.067727  25.661883  46.152848
C  37.258869  26.203384  44.333070
C  38.221752  27.956357  43.313660
C  36.134115  27.316576  42.740042
C  39.365135  29.699695  41.971791
H  38.605235  29.715111  41.405881
C  39.374770  28.792054  43.061859
C  40.523292  28.728461  43.815978
H  40.590097  28.115659  44.534126
C  41.575461  29.560305  43.519855
H  42.382253  29.522406  44.013822
C  41.427079  30.455741  42.483744
H  42.138160  31.064046  42.318018
C  36.968527  32.188159  40.346004
C  40.969083  33.243540  37.418172
H  41.617857  32.554298  37.481122
C  40.934396  33.976461  36.306264
H  41.572892  33.832574  35.618308
C  39.940681  34.968892  36.161093
H  39.870665  35.483414  35.367791
C  39.072223  35.164808  37.229321
C  39.186562  34.352236  38.345726
H  38.560270  34.468501  39.048457
C  38.031616  36.179079  37.167013
N  33.120208  26.334423  40.795648
N  39.392114  22.780943  49.659436
N  38.584680  23.977641  47.047641
N  36.170086  26.299736  43.620704
N  38.321316  26.993474  44.230936
N  37.111129  28.166405  42.553118
N  40.356923  30.519333  41.705216
N  40.116042  33.423398  38.487043
N  38.089428  32.051980  40.279841
N  37.096355  36.172656  38.118976
S  37.535722  21.032466  50.756570
S  35.313191  32.348104  40.417304
C  6.530130  34.158888  21.833476
H  6.057360  34.359302  22.636414
C  6.302096  34.954760  20.730562
C  6.948300  34.655425  19.551207
H  6.847451  35.207203  18.782314
C  7.748026  33.531955  19.516520
H  8.138575  33.248036  18.698809
C  7.979272  32.823443  20.665042
H  8.588220  32.091806  20.632282
C  62.243715  38.637995  26.116666
C  1.074652  37.587753  25.094687
H  0.411104  37.641710  25.771082
C  1.900714  36.504751  25.101111
H  1.843544  35.855977  25.790353
C  2.819274  36.372426  24.084913
H  3.410878  35.631155  24.056007
C  2.861027  37.355222  23.095052
C  2.000920  38.413172  23.198470
H  2.023402  39.067727  22.514367
C  3.843180  37.258869  21.972866
C  4.862590  38.221752  20.219893
C  5.436208  36.134115  20.859674
C  6.204459  39.365135  18.476555
H  6.770369  38.605235  18.461139
C  5.114391  39.374770  19.384196
C  4.360272  40.523292  19.447789
H  3.642124  40.590097  20.060590
C  4.656395  41.575461  18.615945
H  4.162428  42.382253  18.653844
C  5.692506  41.427079  17.720509
H  5.858232  42.138160  17.112204
C  7.830246  36.968527  15.988092
C  10.758078  40.969083  14.932710
H  10.695127  41.617857  15.621952
C  11.869986  40.934396  14.199789
H  12.557943  41.572892  14.343675
C  12.015157  39.940681  13.207358
H  12.808459  39.870665  12.692836
C  10.946929  39.072223  13.011442
C  9.830524  39.186562  13.824014
H  9.127794  38.560270  13.707749
C  11.009237  38.031616  11.997171
N  7.380602  33.120208  21.841827
N  62.751814  39.392114  25.395307
N  1.128609  38.584680  24.198609
N  4.555546  36.170086  21.876514
N  3.945314  38.321316  21.182776
N  5.623132  37.111129  20.009845
N  6.471034  40.356923  17.656917
N  9.689207  40.116042  14.752852
N  7.896409  38.089428  16.124270
N  10.057274  37.096355  12.003594
S  61.654680  37.535722  27.143784
S  7.758946  35.313191  15.828146
C  6.530130  2.041388  53.950976
H  6.057360  2.241802  54.753914
C  6.302096  2.837260  52.848062
C  6.948300  2.537925  51.668707
H  6.847451  3.089703  50.899814
C  7.748026  1.414455  51.634020
H  8.138575  1.130536  50.816308
C  7.979272  0.705943  52.782542
H  8.588220  64.209306  52.749782
C  62.243715  6.520495  58.234166
C  1.074652  5.470253  57.212187
H  0.411104  5.524210  57.888582
C  1.900714  4.387250  57.218611
H  1.843544  3.738477  57.907852
C  2.819274  4.254926  56.202413
H  3.410878  3.513654  56.173508
C  2.861027  5.237722  55.212552
C  2.000920  6.295672  55.315970
H  2.023402  6.950227  54.631867
C  3.843180  5.141369  54.090366
C  4.862590  6.104252  52.337393
C  5.436208  4.016615  52.977174
C  6.204459  7.247635  50.594055
H  6.770369  6.487735  50.578639
C  5.114391  7.257270  51.501696
C  4.360272  8.405792  51.565289
H  3.642124  8.472596  52.178091
C  4.656395  9.457961  50.733445
H  4.162428  10.264753  50.771344
C  5.692506  9.309579  49.838009
H  5.858232  10.020660  49.229704
C  7.830246  4.851027  48.105592
C  10.758078  8.851583  47.050210
H  10.695127  9.500357  47.739452
C  11.869986  8.816896  46.317289
H  12.557943  9.455392  46.461176
C  12.015157  7.823181  45.324858
H  12.808459  7.753165  44.810336
C  10.946929  6.954723  45.128942
C  9.830524  7.069062  45.941514
H  9.127794  6.442770  45.825249
C  11.009237  5.914116  44.114671
N  7.380602  1.002708  53.959327
N  62.751814  7.274614  57.512807
N  1.128609  6.467180  56.316109
N  4.555546  4.052586  53.994014
N  3.945314  6.203816  53.300276
N  5.623132  4.993629  52.127345
N  6.471034  8.239423  49.774417
N  9.689207  7.998542  46.870352
N  7.896409  5.971928  48.241770
N  10.057274  4.978855  44.121094
S  61.654680  5.418222  59.261284
S  7.758946  3.195691  47.945646
C  38.647630  34.158888  53.950976
H  38.174861  34.359302  54.753914
C  38.419596  34.954760  52.848062
C  39.065800  34.655425  51.668707
H  38.964951  35.207203  50.899814
C  39.865526  33.531955  51.634020
H  40.256075  33.248036  50.816308
C  40.096772  32.823443  52.782542
H  40.705720  32.091806  52.749782
C  30.126215  38.637995  58.234166
C  33.192152  37.587753  57.212187
H  32.528604  37.641710  57.888582
C  34.018214  36.504751  57.218611
H  33.961044  35.855977  57.907852
C  34.936774  36.372426  56.202413
H  35.528379  35.631155  56.173508
C  34.978527  37.355222  55.212552
C  34.118420  38.413172  55.315970
H  34.140902  39.067727  54.631867
C  35.960680  37.258869  54.090366
C  36.980089  38.221752  52.337393
C  37.553708  36.134115  52.977174
C  38.321959  39.365135  50.594055
H  38.887869  38.605235  50.578639
C  37.231891  39.374770  51.501696
C  36.477772  40.523292  51.565289
H  35.759625  40.590097  52.178091
C  36.773895  41.575461  50.733445
H  36.279928  42.382253  50.771344
C  37.810006  41.427079  49.838009
H  37.975732  42.138160  49.229704
C  39.947747  36.968527  48.105592
C  42.875578  40.969083  47.050210
H  42.812627  41.617857  47.739452
C  43.987486  40.934396  46.317289
H  44.675443  41.572892  46.461176
C  44.132657  39.940681  45.324858
H  44.925959  39.870665  44.810336
C  43.064429  39.072223  45.128942
C  41.948024  39.186562  45.941514
H  41.245294  38.560270  45.825249
C  43.126737  38.031616  44.114671
N  39.498101  33.120208  53.959327
N  30.634314  39.392114  57.512807
N  33.246109  38.584680  56.316109
N  36.673046  36.170086  53.994014
N  36.062814  38.321316  53.300276
N  37.740632  37.111129  52.127345
N  38.588534  40.356923  49.774417
N  41.806707  40.116042  46.870352
N  40.013909  38.089428  48.241770
N  42.174774  37.096355  44.121094
S  29.537180  37.535722  59.261284
S  39.876446  35.313191  47.945646
C  38.647630  2.041388  21.833476
H  38.174861  2.241802  22.636414
C  38.419596  2.837260  20.730562
C  39.065800  2.537925  19.551207
H  38.964951  3.089703  18.782314
C  39.865526  1.414455  19.516520
H  40.256075  1.130536  18.698809
C  40.096772  0.705943  20.665042
H  40.705720  64.209306  20.632282
C  30.126215  6.520495  26.116666
C  33.192152  5.470253  25.094687
H  32.528604  5.524210  25.771082
C  34.018214  4.387250  25.101111
H  33.961044  3.738477  25.790353
C  34.936774  4.254926  24.084913
H  35.528379  3.513654  24.056007
C  34.978527  5.237722  23.095052
C  34.118420  6.295672  23.198470
H  34.140902  6.950227  22.514367
C  35.960680  5.141369  21.972866
C  36.980089  6.104252  20.219893
C  37.553708  4.016615  20.859674
C  38.321959  7.247635  18.476555
H  38.887869  6.487735  18.461139
C  37.231891  7.257270  19.384196
C  36.477772  8.405792  19.447789
H  35.759625  8.472596  20.060590
C  36.773895  9.457961  18.615945
H  36.279928  10.264753  18.653844
C  37.810006  9.309579  17.720509
H  37.975732  10.020660  17.112204
C  39.947747  4.851027  15.988092
C  42.875578  8.851583  14.932710
H  42.812627  9.500357  15.621952
C  43.987486  8.816896  14.199789
H  44.675443  9.455392  14.343675
C  44.132657  7.823181  13.207358
H  44.925959  7.753165  12.692836
C  43.064429  6.954723  13.011442
C  41.948024  7.069062  13.824014
H  41.245294  6.442770  13.707749
C  43.126737  5.914116  11.997171
N  39.498101  1.002708  21.841827
N  30.634314  7.274614  25.395307
N  33.246109  6.467180  24.198609
N  36.673046  4.052586  21.876514
N  36.062814  6.203816  21.182776
N  37.740632  4.993629  20.009845
N  38.588534  8.239423  17.656917
N  41.806707  7.998542  14.752852
N  40.013909  5.971928  16.124270
N  42.174774  4.978855  12.003594
S  29.537180  5.418222  27.143784
S  39.876446  3.195691  15.828146
C  38.647630  46.134862  26.342773
H  38.174861  45.934448  25.539836
C  38.419596  45.338990  27.445688
C  39.065800  45.638325  28.625043
H  38.964951  45.086546  29.393936
C  39.865526  46.761795  28.659730
H  40.256075  47.045714  29.477441
C  40.096772  47.470307  27.511208
H  40.705720  48.201944  27.543968
C  30.126215  41.655755  22.059584
C  33.192152  42.705997  23.081563
H  32.528604  42.652040  22.405168
C  34.018214  43.788999  23.075139
H  33.961044  44.437773  22.385897
C  34.936774  43.921324  24.091337
H  35.528379  44.662596  24.120242
C  34.978527  42.938528  25.081198
C  34.118420  41.880578  24.977780
H  34.140902  41.226023  25.661883
C  35.960680  43.034881  26.203384
C  36.980089  42.071998  27.956357
C  37.553708  44.159635  27.316576
C  38.321959  40.928615  29.699695
H  38.887869  41.688515  29.715111
C  37.231891  40.918980  28.792054
C  36.477772  39.770458  28.728461
H  35.759625  39.703654  28.115659
C  36.773895  38.718289  29.560305
H  36.279928  37.911497  29.522406
C  37.810006  38.866671  30.455741
H  37.975732  38.155590  31.064046
C  39.947747  43.325223  32.188159
C  42.875578  39.324667  33.243540
H  42.812627  38.675894  32.554298
C  43.987486  39.359354  33.976461
H  44.675443  38.720858  33.832574
C  44.132657  40.353069  34.968892
H  44.925959  40.423085  35.483414
C  43.064429  41.221527  35.164808
C  41.948024  41.107188  34.352236
H  41.245294  41.733480  34.468501
C  43.126737  42.262134  36.179079
N  39.498101  47.173542  26.334423
N  30.634314  40.901636  22.780943
N  33.246109  41.709070  23.977641
N  36.673046  44.123664  26.299736
N  36.062814  41.972434  26.993474
N  37.740632  43.182621  28.166405
N  38.588534  39.936827  30.519333
N  41.806707  40.177708  33.423398
N  40.013909  42.204322  32.051980
N  42.174774  43.197395  36.172656
S  29.537180  42.758028  21.032466
S  39.876446  44.980559  32.348104
C  38.647630  14.017362  58.460273
H  38.174861  13.816949  57.657336
C  38.419596  13.221490  59.563188
C  39.065800  13.520825  60.742543
H  38.964951  12.969046  61.511436
C  39.865526  14.644295  60.777230
H  40.256075  14.928214  61.594941
C  40.096772  15.352807  59.628708
H  40.705720  16.084444  59.661468
C  30.126215  9.538255  54.177084
C  33.192152  10.588497  55.199063
H  32.528604  10.534540  54.522668
C  34.018214  11.671499  55.192639
H  33.961044  12.320273  54.503397
C  34.936774  11.803824  56.208837
H  35.528379  12.545096  56.237742
C  34.978527  10.821028  57.198698
C  34.118420  9.763078  57.095280
H  34.140902  9.108523  57.779382
C  35.960680  10.917381  58.320884
C  36.980089  9.954498  60.073857
C  37.553708  12.042135  59.434076
C  38.321959  8.811115  61.817195
H  38.887869  9.571015  61.832611
C  37.231891  8.801480  60.909554
C  36.477772  7.652958  60.845961
H  35.759625  7.586153  60.233159
C  36.773895  6.600789  61.677805
H  36.279928  5.793997  61.639906
C  37.810006  6.749171  62.573241
H  37.975732  6.038090  63.181546
C  39.947747  11.207723  0.070658
C  42.875578  7.207167  1.126040
H  42.812627  6.558393  0.436798
C  43.987486  7.241854  1.858961
H  44.675443  6.603358  1.715075
C  44.132657  8.235569  2.851392
H  44.925959  8.305585  3.365914
C  43.064429  9.104027  3.047308
C  41.948024  8.989688  2.234736
H  41.245294  9.615979  2.351001
C  43.126737  10.144634  4.061579
N  39.498101  15.056042  58.451923
N  30.634314  8.784136  54.898443
N  33.246109  9.591570  56.095141
N  36.673046  12.006164  58.417236
N  36.062814  9.854934  59.110974
N  37.740632  11.065121  60.283905
N  38.588534  7.819327  62.636833
N  41.806707  8.060208  1.305898
N  40.013909  10.086822  64.169480
N  42.174774  11.079895  4.055156
S  29.537180  10.640528  53.149966
S  39.876446  12.863059  0.230604
C  6.530130  46.134862  58.460273
H  6.057360  45.934448  57.657336
C  6.302096  45.338990  59.563188
C  6.948300  45.638325  60.742543
H  6.847451  45.086546  61.511436
C  7.748026  46.761795  60.777230
H  8.138575  47.045714  61.594941
C  7.979272  47.470307  59.628708
H  8.588220  48.201944  59.661468
C  62.243715  41.655755  54.177084
C  1.074652  42.705997  55.199063
H  0.411104  42.652040  54.522668
C  1.900714  43.788999  55.192639
H  1.843544  44.437773  54.503397
C  2.819274  43.921324  56.208837
H  3.410878  44.662596  56.237742
C  2.861027  42.938528  57.198698
C  2.000920  41.880578  57.095280
H  2.023402  41.226023  57.779382
C  3.843180  43.034881  58.320884
C  4.862590  42.071998  60.073857
C  5.436208  44.159635  59.434076
C  6.204459  40.928615  61.817195
H  6.770369  41.688515  61.832611
C  5.114391  40.918980  60.909554
C  4.360272  39.770458  60.845961
H  3.642124  39.703654  60.233159
C  4.656395  38.718289  61.677805
H  4.162428  37.911497  61.639906
C  5.692506  38.866671  62.573241
H  5.858232  38.155590  63.181546
C  7.830246  43.325223  0.070658
C  10.758078  39.324667  1.126040
H  10.695127  38.675894  0.436798
C  11.869986  39.359354  1.858961
H  12.557943  38.720858  1.715075
C  12.015157  40.353069  2.851392
H  12.808459  40.423085  3.365914
C  10.946929  41.221527  3.047308
C  9.830524  41.107188  2.234736
H  9.127794  41.733480  2.351001
C  11.009237  42.262134  4.061579
N  7.380602  47.173542  58.451923
N  62.751814  40.901636  54.898443
N  1.128609  41.709070  56.095141
N  4.555546  44.123664  58.417236
N  3.945314  41.972434  59.110974
N  5.623132  43.182621  60.283905
N  6.471034  39.936827  62.636833
N  9.689207  40.177708  1.305898
N  7.896409  42.204322  64.169480
N  10.057274  43.197395  4.055156
S  61.654680  42.758028  53.149966
S  7.758946  44.980559  0.230604
C  6.530130  14.017362  26.342773
H  6.057360  13.816949  25.539836
C  6.302096  13.221490  27.445688
C  6.948300  13.520825  28.625043
H  6.847451  12.969046  29.393936
C  7.748026  14.644295  28.659730
H  8.138575  14.928214  29.477441
C  7.979272  15.352807  27.511208
H  8.588220  16.084444  27.543968
C  62.243715  9.538255  22.059584
C  1.074652  10.588497  23.081563
H  0.411104  10.534540  22.405168
C  1.900714  11.671499  23.075139
H  1.843544  12.320273  22.385897
C  2.819274  11.803824  24.091337
H  3.410878  12.545096  24.120242
C  2.861027  10.821028  25.081198
C  2.000920  9.763078  24.977780
H  2.023402  9.108523  25.661883
C  3.843180  10.917381  26.203384
C  4.862590  9.954498  27.956357
C  5.436208  12.042135  27.316576
C  6.204459  8.811115  29.699695
H  6.770369  9.571015  29.715111
C  5.114391  8.801480  28.792054
C  4.360272  7.652958  28.728461
H  3.642124  7.586153  28.115659
C  4.656395  6.600789  29.560305
H  4.162428  5.793997  29.522406
C  5.692506  6.749171  30.455741
H  5.858232  6.038090  31.064046
C  7.830246  11.207723  32.188159
C  10.758078  7.207167  33.243540
H  10.695127  6.558393  32.554298
C  11.869986  7.241854  33.976461
H  12.557943  6.603358  33.832574
C  12.015157  8.235569  34.968892
H  12.808459  8.305585  35.483414
C  10.946929  9.104027  35.164808
C  9.830524  8.989688  34.352236
H  9.127794  9.615979  34.468501
C  11.009237  10.144634  36.179079
N  7.380602  15.056042  26.334423
N  62.751814  8.784136  22.780943
N  1.128609  9.591570  23.977641
N  4.555546  12.006164  26.299736
N  3.945314  9.854934  26.993474
N  5.623132  11.065121  28.166405
N  6.471034  7.819327  30.519333
N  9.689207  8.060208  33.423398
N  7.896409  10.086822  32.051980
N  10.057274  11.079895  36.172656
S  61.654680  10.640528  21.032466
S  7.758946  12.863059  32.348104
C  9.528620  14.017362  53.950976
H  10.001390  13.816949  54.753914
C  9.756654  13.221490  52.848062
C  9.110450  13.520825  51.668707
H  9.211299  12.969046  50.899814
C  8.310724  14.644295  51.634020
H  7.920176  14.928214  50.816308
C  8.079478  15.352807  52.782542
H  7.470530  16.084444  52.749782
C  18.050035  9.538255  58.234166
C  14.984098  10.588497  57.212187
H  15.647646  10.534540  57.888582
C  14.158036  11.671499  57.218611
H  14.215205  12.320273  57.907852
C  13.239476  11.803824  56.202413
H  12.647871  12.545096  56.173508
C  13.197723  10.821028  55.212552
C  14.057830  9.763078  55.315970
H  14.035348  9.108523  54.631867
C  12.215570  10.917381  54.090366
C  11.196161  9.954498  52.337393
C  10.622542  12.042135  52.977174
C  9.854291  8.811115  50.594055
H  9.288381  9.571015  50.578639
C  10.944359  8.801480  51.501696
C  11.698478  7.652958  51.565289
H  12.416626  7.586153  52.178091
C  11.402355  6.600789  50.733445
H  11.896322  5.793997  50.771344
C  10.366244  6.749171  49.838009
H  10.200518  6.038090  49.229704
C  8.228503  11.207723  48.105592
C  5.300672  7.207167  47.050210
H  5.363622  6.558393  47.739452
C  4.188764  7.241854  46.317289
H  3.500808  6.603358  46.461176
C  4.043593  8.235569  45.324858
H  3.250291  8.305585  44.810336
C  5.111821  9.104027  45.128942
C  6.228226  8.989688  45.941514
H  6.930956  9.615979  45.825249
C  5.049513  10.144634  44.114671
N  8.678148  15.056042  53.959327
N  17.541936  8.784136  57.512807
N  14.930141  9.591570  56.316109
N  11.503204  12.006164  53.994014
N  12.113436  9.854934  53.300276
N  10.435618  11.065121  52.127345
N  9.587716  7.819327  49.774417
N  6.369543  8.060208  46.870352
N  8.162341  10.086822  48.241770
N  6.001476  11.079895  44.121094
S  18.639070  10.640528  59.261284
S  8.299804  12.863059  47.945646
C  9.528620  46.134862  21.833476
H  10.001390  45.934448  22.636414
C  9.756654  45.338990  20.730562
C  9.110450  45.638325  19.551207
H  9.211299  45.086546  18.782314
C  8.310724  46.761795  19.516520
H  7.920176  47.045714  18.698809
C  8.079478  47.470307  20.665042
H  7.470530  48.201944  20.632282
C  18.050035  41.655755  26.116666
C  14.984098  42.705997  25.094687
H  15.647646  42.652040  25.771082
C  14.158036  43.788999  25.101111
H  14.215205  44.437773  25.790353
C  13.239476  43.921324  24.084913
H  12.647871  44.662596  24.056007
C  13.197723  42.938528  23.095052
C  14.057830  41.880578  23.198470
H  14.035348  41.226023  22.514367
C  12.215570  43.034881  21.972866
C  11.196161  42.071998  20.219893
C  10.622542  44.159635  20.859674
C  9.854291  40.928615  18.476555
H  9.288381  41.688515  18.461139
C  10.944359  40.918980  19.384196
C  11.698478  39.770458  19.447789
H  12.416626  39.703654  20.060590
C  11.402355  38.718289  18.615945
H  11.896322  37.911497  18.653844
C  10.366244  38.866671  17.720509
H  10.200518  38.155590  17.112204
C  8.228503  43.325223  15.988092
C  5.300672  39.324667  14.932710
H  5.363622  38.675894  15.621952
C  4.188764  39.359354  14.199789
H  3.500808  38.720858  14.343675
C  4.043593  40.353069  13.207358
H  3.250291  40.423085  12.692836
C  5.111821  41.221527  13.011442
C  6.228226  41.107188  13.824014
H  6.930956  41.733480  13.707749
C  5.049513  42.262134  11.997171
N  8.678148  47.173542  21.841827
N  17.541936  40.901636  25.395307
N  14.930141  41.709070  24.198609
N  11.503204  44.123664  21.876514
N  12.113436  41.972434  21.182776
N  10.435618  43.182621  20.009845
N  9.587716  39.936827  17.656917
N  6.369543  40.177708  14.752852
N  8.162341  42.204322  16.124270
N  6.001476  43.197395  12.003594
S  18.639070  42.758028  27.143784
S  8.299804  44.980559  15.828146
C  41.646120  14.017362  21.833476
H  42.118889  13.816949  22.636414
C  41.874154  13.221490  20.730562
C  41.227950  13.520825  19.551207
H  41.328799  12.969046  18.782314
C  40.428224  14.644295  19.516520
H  40.037675  14.928214  18.698809
C  40.196978  15.352807  20.665042
H  39.588030  16.084444  20.632282
C  50.167535  9.538255  26.116666
C  47.101598  10.588497  25.094687
H  47.765146  10.534540  25.771082
C  46.275536  11.671499  25.101111
H  46.332706  12.320273  25.790353
C  45.356976  11.803824  24.084913
H  44.765372  12.545096  24.056007
C  45.315223  10.821028  23.095052
C  46.175330  9.763078  23.198470
H  46.152848  9.108523  22.514367
C  44.333070  10.917381  21.972866
C  43.313660  9.954498  20.219893
C  42.740042  12.042135  20.859674
C  41.971791  8.811115  18.476555
H  41.405881  9.571015  18.461139
C  43.061859  8.801480  19.384196
C  43.815978  7.652958  19.447789
H  44.534126  7.586153  20.060590
C  43.519855  6.600789  18.615945
H  44.013822  5.793997  18.653844
C  42.483744  6.749171  17.720509
H  42.318018  6.038090  17.112204
C  40.346004  11.207723  15.988092
C  37.418172  7.207167  14.932710
H  37.481122  6.558393  15.621952
C  36.306264  7.241854  14.199789
H  35.618308  6.603358  14.343675
C  36.161093  8.235569  13.207358
H  35.367791  8.305585  12.692836
C  37.229321  9.104027  13.011442
C  38.345726  8.989688  13.824014
H  39.048457  9.615979  13.707749
C  37.167013  10.144634  11.997171
N  40.795648  15.056042  21.841827
N  49.659436  8.784136  25.395307
N  47.047641  9.591570  24.198609
N  43.620704  12.006164  21.876514
N  44.230936  9.854934  21.182776
N  42.553118  11.065121  20.009845
N  41.705216  7.819327  17.656917
N  38.487043  8.060208  14.752852
N  40.279841  10.086822  16.124270
N  38.118976  11.079895  12.003594
S  50.756570  10.640528  27.143784
S  40.417304  12.863059  15.828146
C  41.646120  46.134862  53.950976
H  42.118889  45.934448  54.753914
C  41.874154  45.338990  52.848062
C  41.227950  45.638325  51.668707
H  41.328799  45.086546  50.899814
C  40.428224  46.761795  51.634020
H  40.037675  47.045714  50.816308
C  40.196978  47.470307  52.782542
H  39.588030  48.201944  52.749782
C  50.167535  41.655755  58.234166
C  47.101598  42.705997  57.212187
H  47.765146  42.652040  57.888582
C  46.275536  43.788999  57.218611
H  46.332706  44.437773  57.907852
C  45.356976  43.921324  56.202413
H  44.765372  44.662596  56.173508
C  45.315223  42.938528  55.212552
C  46.175330  41.880578  55.315970
H  46.152848  41.226023  54.631867
C  44.333070  43.034881  54.090366
C  43.313660  42.071998  52.337393
C  42.740042  44.159635  52.977174
C  41.971791  40.928615  50.594055
H  41.405881  41.688515  50.578639
C  43.061859  40.918980  51.501696
C  43.815978  39.770458  51.565289
H  44.534126  39.703654  52.178091
C  43.519855  38.718289  50.733445
H  44.013822  37.911497  50.771344
C  42.483744  38.866671  49.838009
H  42.318018  38.155590  49.229704
C  40.346004  43.325223  48.105592
C  37.418172  39.324667  47.050210
H  37.481122  38.675894  47.739452
C  36.306264  39.359354  46.317289
H  35.618308  38.720858  46.461176
C  36.161093  40.353069  45.324858
H  35.367791  40.423085  44.810336
C  37.229321  41.221527  45.128942
C  38.345726  41.107188  45.941514
H  39.048457  41.733480  45.825249
C  37.167013  42.262134  44.114671
N  40.795648  47.173542  53.959327
N  49.659436  40.901636  57.512807
N  47.047641  41.709070  56.316109
N  43.620704  44.123664  53.994014
N  44.230936  41.972434  53.300276
N  42.553118  43.182621  52.127345
N  41.705216  39.936827  49.774417
N  38.487043  40.177708  46.870352
N  40.279841  42.204322  48.241770
N  38.118976  43.197395  44.121094
S  50.756570  42.758028  59.261284
S  40.417304  44.980559  47.945646
C  41.646120  2.041388  58.460273
H  42.118889  2.241802  57.657336
C  41.874154  2.837260  59.563188
C  41.227950  2.537925  60.742543
H  41.328799  3.089703  61.511436
C  40.428224  1.414455  60.777230
H  40.037675  1.130536  61.594941
C  40.196978  0.705943  59.628708
H  39.588030  64.209306  59.661468
C  50.167535  6.520495  54.177084
C  47.101598  5.470253  55.199063
H  47.765146  5.524210  54.522668
C  46.275536  4.387250  55.192639
H  46.332706  3.738477  54.503397
C  45.356976  4.254926  56.208837
H  44.765372  3.513654  56.237742
C  45.315223  5.237722  57.198698
C  46.175330  6.295672  57.095280
H  46.152848  6.950227  57.779382
C  44.333070  5.141369  58.320884
C  43.313660  6.104252  60.073857
C  42.740042  4.016615  59.434076
C  41.971791  7.247635  61.817195
H  41.405881  6.487735  61.832611
C  43.061859  7.257270  60.909554
C  43.815978  8.405792  60.845961
H  44.534126  8.472596  60.233159
C  43.519855  9.457961  61.677805
H  44.013822  10.264753  61.639906
C  42.483744  9.309579  62.573241
H  42.318018  10.020660  63.181546
C  40.346004  4.851027  0.070658
C  37.418172  8.851583  1.126040
H  37.481122  9.500357  0.436798
C  36.306264  8.816896  1.858961
H  35.618308  9.455392  1.715075
C  36.161093  7.823181  2.851392
H  35.367791  7.753165  3.365914
C  37.229321  6.954723  3.047308
C  38.345726  7.069062  2.234736
H  39.048457  6.442770  2.351001
C  37.167013  5.914116  4.061579
N  40.795648  1.002708  58.451923
N  49.659436  7.274614  54.898443
N  47.047641  6.467180  56.095141
N  43.620704  4.052586  58.417236
N  44.230936  6.203816  59.110974
N  42.553118  4.993629  60.283905
N  41.705216  8.239423  62.636833
N  38.487043  7.998542  1.305898
N  40.279841  5.971928  64.169480
N  38.118976  4.978855  4.055156
S  50.756570  5.418222  53.149966
S  40.417304  3.195691  0.230604
C  41.646120  34.158888  26.342773
H  42.118889  34.359302  25.539836
C  41.874154  34.954760  27.445688
C  41.227950  34.655425  28.625043
H  41.328799  35.207203  29.393936
C  40.428224  33.531955  28.659730
H  40.037675  33.248036  29.477441
C  40.196978  32.823443  27.511208
H  39.588030  32.091806  27.543968
C  50.167535  38.637995  22.059584
C  47.101598  37.587753  23.081563
H  47.765146  37.641710  22.405168
C  46.275536  36.504751  23.075139
H  46.332706  35.855977  22.385897
C  45.356976  36.372426  24.091337
H  44.765372  35.631155  24.120242
C  45.315223  37.355222  25.081198
C  46.175330  38.413172  24.977780
H  46.152848  39.067727  25.661883
C  44.333070  37.258869  26.203384
C  43.313660  38.221752  27.956357
C  42.740042  36.134115  27.316576
C  41.971791  39.365135  29.699695
H  41.405881  38.605235  29.715111
C  43.061859  39.374770  28.792054
C  43.815978  40.523292  28.728461
H  44.534126  40.590097  28.115659
C  43.519855  41.575461  29.560305
H  44.013822  42.382253  29.522406
C  42.483744  41.427079  30.455741
H  42.318018  42.138160  31.064046
C  40.346004  36.968527  32.188159
C  37.418172  40.969083  33.243540
H  37.481122  41.617857  32.554298
C  36.306264  40.934396  33.976461
H  35.618308  41.572892  33.832574
C  36.161093  39.940681  34.968892
H  35.367791  39.870665  35.483414
C  37.229321  39.072223  35.164808
C  38.345726  39.186562  34.352236
H  39.048457  38.560270  34.468501
C  37.167013  38.031616  36.179079
N  40.795648  33.120208  26.334423
N  49.659436  39.392114  22.780943
N  47.047641  38.584680  23.977641
N  43.620704  36.170086  26.299736
N  44.230936  38.321316  26.993474
N  42.553118  37.111129  28.166405
N  41.705216  40.356923  30.519333
N  38.487043  40.116042  33.423398
N  40.279841  38.089428  32.051980
N  38.118976  37.096355  36.172656
S  50.756570  37.535722  21.032466
S  40.417304  35.313191  32.348104
C  9.528620  2.041388  26.342773
H  10.001390  2.241802  25.539836
C  9.756654  2.837260  27.445688
C  9.110450  2.537925  28.625043
H  9.211299  3.089703  29.393936
C  8.310724  1.414455  28.659730
H  7.920176  1.130536  29.477441
C  8.079478  0.705943  27.511208
H  7.470530  64.209306  27.543968
C  18.050035  6.520495  22.059584
C  14.984098  5.470253  23.081563
H  15.647646  5.524210  22.405168
C  14.158036  4.387250  23.075139
H  14.215205  3.738477  22.385897
C  13.239476  4.254926  24.091337
H  12.647871  3.513654  24.120242
C  13.197723  5.237722  25.081198
C  14.057830  6.295672  24.977780
H  14.035348  6.950227  25.661883
C  12.215570  5.141369  26.203384
C  11.196161  6.104252  27.956357
C  10.622542  4.016615  27.316576
C  9.854291  7.247635  29.699695
H  9.288381  6.487735  29.715111
C  10.944359  7.257270  28.792054
C  11.698478  8.405792  28.728461
H  12.416626  8.472596  28.115659
C  11.402355  9.457961  29.560305
H  11.896322  10.264753  29.522406
C  10.366244  9.309579  30.455741
H  10.200518  10.020660  31.064046
C  8.228503  4.851027  32.188159
C  5.300672  8.851583  33.243540
H  5.363622  9.500357  32.554298
C  4.188764  8.816896  33.976461
H  3.500808  9.455392  33.832574
C  4.043593  7.823181  34.968892
H  3.250291  7.753165  35.483414
C  5.111821  6.954723  35.164808
C  6.228226  7.069062  34.352236
H  6.930956  6.442770  34.468501
C  5.049513  5.914116  36.179079
N  8.678148  1.002708  26.334423
N  17.541936  7.274614  22.780943
N  14.930141  6.467180  23.977641
N  11.503204  4.052586  26.299736
N  12.113436  6.203816  26.993474
N  10.435618  4.993629  28.166405
N  9.587716  8.239423  30.519333
N  6.369543  7.998542  33.423398
N  8.162341  5.971928  32.051980
N  6.001476  4.978855  36.172656
S  18.639070  5.418222  21.032466
S  8.299804  3.195691  32.348104
C  9.528620  34.158888  58.460273
H  10.001390  34.359302  57.657336
C  9.756654  34.954760  59.563188
C  9.110450  34.655425  60.742543
H  9.211299  35.207203  61.511436
C  8.310724  33.531955  60.777230
H  7.920176  33.248036  61.594941
C  8.079478  32.823443  59.628708
H  7.470530  32.091806  59.661468
C  18.050035  38.637995  54.177084
C  14.984098  37.587753  55.199063
H  15.647646  37.641710  54.522668
C  14.158036  36.504751  55.192639
H  14.215205  35.855977  54.503397
C  13.239476  36.372426  56.208837
H  12.647871  35.631155  56.237742
C  13.197723  37.355222  57.198698
C  14.057830  38.413172  57.095280
H  14.035348  39.067727  57.779382
C  12.215570  37.258869  58.320884
C  11.196161  38.221752  60.073857
C  10.622542  36.134115  59.434076
C  9.854291  39.365135  61.817195
H  9.288381  38.605235  61.832611
C  10.944359  39.374770  60.909554
C  11.698478  40.523292  60.845961
H  12.416626  40.590097  60.233159
C  11.402355  41.575461  61.677805
H  11.896322  42.382253  61.639906
C  10.366244  41.427079  62.573241
H  10.200518  42.138160  63.181546
C  8.228503  36.968527  0.070658
C  5.300672  40.969083  1.126040
H  5.363622  41.617857  0.436798
C  4.188764  40.934396  1.858961
H  3.500808  41.572892  1.715075
C  4.043593  39.940681  2.851392
H  3.250291  39.870665  3.365914
C  5.111821  39.072223  3.047308
C  6.228226  39.186562  2.234736
H  6.930956  38.560270  2.351001
C  5.049513  38.031616  4.061579
N  8.678148  33.120208  58.451923
N  17.541936  39.392114  54.898443
N  14.930141  38.584680  56.095141
N  11.503204  36.170086  58.417236
N  12.113436  38.321316  59.110974
N  10.435618  37.111129  60.283905
N  9.587716  40.356923  62.636833
N  6.369543  40.116042  1.305898
N  8.162341  38.089428  64.169480
N  6.001476  37.096355  4.055156
S  18.639070  37.535722  53.149966
S  8.299804  35.313191  0.230604
C  21.833476  6.530130  34.158888
H  22.636414  6.057360  34.359302
C  20.730562  6.302096  34.954760
C  19.551207  6.948300  34.655425
H  18.782314  6.847451  35.207203
C  19.516520  7.748026  33.531955
H  18.698809  8.138575  33.248036
C  20.665042  7.979272  32.823443
H  20.632282  8.588220  32.091806
C  26.116666  62.243715  38.637995
C  25.094687  1.074652  37.587753
H  25.771082  0.411104  37.641710
C  25.101111  1.900714  36.504751
H  25.790353  1.843544  35.855977
C  24.084913  2.819274  36.372426
H  24.056007  3.410878  35.631155
C  23.095052  2.861027  37.355222
C  23.198470  2.000920  38.413172
H  22.514367  2.023402  39.067727
C  21.972866  3.843180  37.258869
C  20.219893  4.862590  38.221752
C  20.859674  5.436208  36.134115
C  18.476555  6.204459  39.365135
H  18.461139  6.770369  38.605235
C  19.384196  5.114391  39.374770
C  19.447789  4.360272  40.523292
H  20.060590  3.642124  40.590097
C  18.615945  4.656395  41.575461
H  18.653844  4.162428  42.382253
C  17.720509  5.692506  41.427079
H  17.112204  5.858232  42.138160
C  15.988092  7.830246  36.968527
C  14.932710  10.758078  40.969083
H  15.621952  10.695127  41.617857
C  14.199789  11.869986  40.934396
H  14.343675  12.557943  41.572892
C  13.207358  12.015157  39.940681
H  12.692836  12.808459  39.870665
C  13.011442  10.946929  39.072223
C  13.824014  9.830524  39.186562
H  13.707749  9.127794  38.560270
C  11.997171  11.009237  38.031616
N  21.841827  7.380602  33.120208
N  25.395307  62.751814  39.392114
N  24.198609  1.128609  38.584680
N  21.876514  4.555546  36.170086
N  21.182776  3.945314  38.321316
N  20.009845  5.623132  37.111129
N  17.656917  6.471034  40.356923
N  14.752852  9.689207  40.116042
N  16.124270  7.896409  38.089428
N  12.003594  10.057274  37.096355
S  27.143784  61.654680  37.535722
S  15.828146  7.758946  35.313191
C  21.833476  38.647630  2.041388
H  22.636414  38.174861  2.241802
C  20.730562  38.419596  2.837260
C  19.551207  39.065800  2.537925
H  18.782314  38.964951  3.089703
C  19.516520  39.865526  1.414455
H  18.698809  40.256075  1.130536
C  20.665042  40.096772  0.705943
H  20.632282  40.705720  64.209306
C  26.116666  30.126215  6.520495
C  25.094687  33.192152  5.470253
H  25.771082  32.528604  5.524210
C  25.101111  34.018214  4.387250
H  25.790353  33.961044  3.738477
C  24.084913  34.936774  4.254926
H  24.056007  35.528379  3.513654
C  23.095052  34.978527  5.237722
C  23.198470  34.118420  6.295672
H  22.514367  34.140902  6.950227
C  21.972866  35.960680  5.141369
C  20.219893  36.980089  6.104252
C  20.859674  37.553708  4.016615
C  18.476555  38.321959  7.247635
H  18.461139  38.887869  6.487735
C  19.384196  37.231891  7.257270
C  19.447789  36.477772  8.405792
H  20.060590  35.759625  8.472596
C  18.615945  36.773895  9.457961
H  18.653844  36.279928  10.264753
C  17.720509  37.810006  9.309579
H  17.112204  37.975732  10.020660
C  15.988092  39.947747  4.851027
C  14.932710  42.875578  8.851583
H  15.621952  42.812627  9.500357
C  14.199789  43.987486  8.816896
H  14.343675  44.675443  9.455392
C  13.207358  44.132657  7.823181
H  12.692836  44.925959  7.753165
C  13.011442  43.064429  6.954723
C  13.824014  41.948024  7.069062
H  13.707749  41.245294  6.442770
C  11.997171  43.126737  5.914116
N  21.841827  39.498101  1.002708
N  25.395307  30.634314  7.274614
N  24.198609  33.246109  6.467180
N  21.876514  36.673046  4.052586
N  21.182776  36.062814  6.203816
N  20.009845  37.740632  4.993629
N  17.656917  38.588534  8.239423
N  14.752852  41.806707  7.998542
N  16.124270  40.013909  5.971928
N  12.003594  42.174774  4.978855
S  27.143784  29.537180  5.418222
S  15.828146  39.876446  3.195691
C  53.950976  6.530130  2.041388
H  54.753914  6.057360  2.241802
C  52.848062  6.302096  2.837260
C  51.668707  6.948300  2.537925
H  50.899814  6.847451  3.089703
C  51.634020  7.748026  1.414455
H  50.816308  8.138575  1.130536
C  52.782542  7.979272  0.705943
H  52.749782  8.588220  64.209306
C  58.234166  62.243715  6.520495
C  57.212187  1.074652  5.470253
H  57.888582  0.411104  5.524210
C  57.218611  1.900714  4.387250
H  57.907852  1.843544  3.738477
C  56.202413  2.819274  4.254926
H  56.173508  3.410878  3.513654
C  55.212552  2.861027  5.237722
C  55.315970  2.000920  6.295672
H  54.631867  2.023402  6.950227
C  54.090366  3.843180  5.141369
C  52.337393  4.862590  6.104252
C  52.977174  5.436208  4.016615
C  50.594055  6.204459  7.247635
H  50.578639  6.770369  6.487735
C  51.501696  5.114391  7.257270
C  51.565289  4.360272  8.405792
H  52.178091  3.642124  8.472596
C  50.733445  4.656395  9.457961
H  50.771344  4.162428  10.264753
C  49.838009  5.692506  9.309579
H  49.229704  5.858232  10.020660
C  48.105592  7.830246  4.851027
C  47.050210  10.758078  8.851583
H  47.739452  10.695127  9.500357
C  46.317289  11.869986  8.816896
H  46.461176  12.557943  9.455392
C  45.324858  12.015157  7.823181
H  44.810336  12.808459  7.753165
C  45.128942  10.946929  6.954723
C  45.941514  9.830524  7.069062
H  45.825249  9.127794  6.442770
C  44.114671  11.009237  5.914116
N  53.959327  7.380602  1.002708
N  57.512807  62.751814  7.274614
N  56.316109  1.128609  6.467180
N  53.994014  4.555546  4.052586
N  53.300276  3.945314  6.203816
N  52.127345  5.623132  4.993629
N  49.774417  6.471034  8.239423
N  46.870352  9.689207  7.998542
N  48.241770  7.896409  5.971928
N  44.121094  10.057274  4.978855
S  59.261284  61.654680  5.418222
S  47.945646  7.758946  3.195691
C  53.950976  38.647630  34.158888
H  54.753914  38.174861  34.359302
C  52.848062  38.419596  34.954760
C  51.668707  39.065800  34.655425
H  50.899814  38.964951  35.207203
C  51.634020  39.865526  33.531955
H  50.816308  40.256075  33.248036
C  52.782542  40.096772  32.823443
H  52.749782  40.705720  32.091806
C  58.234166  30.126215  38.637995
C  57.212187  33.192152  37.587753
H  57.888582  32.528604  37.641710
C  57.218611  34.018214  36.504751
H  57.907852  33.961044  35.855977
C  56.202413  34.936774  36.372426
H  56.173508  35.528379  35.631155
C  55.212552  34.978527  37.355222
C  55.315970  34.118420  38.413172
H  54.631867  34.140902  39.067727
C  54.090366  35.960680  37.258869
C  52.337393  36.980089  38.221752
C  52.977174  37.553708  36.134115
C  50.594055  38.321959  39.365135
H  50.578639  38.887869  38.605235
C  51.501696  37.231891  39.374770
C  51.565289  36.477772  40.523292
H  52.178091  35.759625  40.590097
C  50.733445  36.773895  41.575461
H  50.771344  36.279928  42.382253
C  49.838009  37.810006  41.427079
H  49.229704  37.975732  42.138160
C  48.105592  39.947747  36.968527
C  47.050210  42.875578  40.969083
H  47.739452  42.812627  41.617857
C  46.317289  43.987486  40.934396
H  46.461176  44.675443  41.572892
C  45.324858  44.132657  39.940681
H  44.810336  44.925959  39.870665
C  45.128942  43.064429  39.072223
C  45.941514  41.948024  39.186562
H  45.825249  41.245294  38.560270
C  44.114671  43.126737  38.031616
N  53.959327  39.498101  33.120208
N  57.512807  30.634314  39.392114
N  56.316109  33.246109  38.584680
N  53.994014  36.673046  36.170086
N  53.300276  36.062814  38.321316
N  52.127345  37.740632  37.111129
N  49.774417  38.588534  40.356923
N  46.870352  41.806707  40.116042
N  48.241770  40.013909  38.089428
N  44.121094  42.174774  37.096355
S  59.261284  29.537180  37.535722
S  47.945646  39.876446  35.313191
C  26.342773  38.647630  46.134862
H  25.539836  38.174861  45.934448
C  27.445688  38.419596  45.338990
C  28.625043  39.065800  45.638325
H  29.393936  38.964951  45.086546
C  28.659730  39.865526  46.761795
H  29.477441  40.256075  47.045714
C  27.511208  40.096772  47.470307
H  27.543968  40.705720  48.201944
C  22.059584  30.126215  41.655755
C  23.081563  33.192152  42.705997
H  22.405168  32.528604  42.652040
C  23.075139  34.018214  43.788999
H  22.385897  33.961044  44.437773
C  24.091337  34.936774  43.921324
H  24.120242  35.528379  44.662596
C  25.081198  34.978527  42.938528
C  24.977780  34.118420  41.880578
H  25.661883  34.140902  41.226023
C  26.203384  35.960680  43.034881
C  27.956357  36.980089  42.071998
C  27.316576  37.553708  44.159635
C  29.699695  38.321959  40.928615
H  29.715111  38.887869  41.688515
C  28.792054  37.231891  40.918980
C  28.728461  36.477772  39.770458
H  28.115659  35.759625  39.703654
C  29.560305  36.773895  38.718289
H  29.522406  36.279928  37.911497
C  30.455741  37.810006  38.866671
H  31.064046  37.975732  38.155590
C  32.188159  39.947747  43.325223
C  33.243540  42.875578  39.324667
H  32.554298  42.812627  38.675894
C  33.976461  43.987486  39.359354
H  33.832574  44.675443  38.720858
C  34.968892  44.132657  40.353069
H  35.483414  44.925959  40.423085
C  35.164808  43.064429  41.221527
C  34.352236  41.948024  41.107188
H  34.468501  41.245294  41.733480
C  36.179079  43.126737  42.262134
N  26.334423  39.498101  47.173542
N  22.780943  30.634314  40.901636
N  23.977641  33.246109  41.709070
N  26.299736  36.673046  44.123664
N  26.993474  36.062814  41.972434
N  28.166405  37.740632  43.182621
N  30.519333  38.588534  39.936827
N  33.423398  41.806707  40.177708
N  32.051980  40.013909  42.204322
N  36.172656  42.174774  43.197395
S  21.032466  29.537180  42.758028
S  32.348104  39.876446  44.980559
C  26.342773  6.530130  14.017362
H  25.539836  6.057360  13.816949
C  27.445688  6.302096  13.221490
C  28.625043  6.948300  13.520825
H  29.393936  6.847451  12.969046
C  28.659730  7.748026  14.644295
H  29.477441  8.138575  14.928214
C  27.511208  7.979272  15.352807
H  27.543968  8.588220  16.084444
C  22.059584  62.243715  9.538255
C  23.081563  1.074652  10.588497
H  22.405168  0.411104  10.534540
C  23.075139  1.900714  11.671499
H  22.385897  1.843544  12.320273
C  24.091337  2.819274  11.803824
H  24.120242  3.410878  12.545096
C  25.081198  2.861027  10.821028
C  24.977780  2.000920  9.763078
H  25.661883  2.023402  9.108523
C  26.203384  3.843180  10.917381
C  27.956357  4.862590  9.954498
C  27.316576  5.436208  12.042135
C  29.699695  6.204459  8.811115
H  29.715111  6.770369  9.571015
C  28.792054  5.114391  8.801480
C  28.728461  4.360272  7.652958
H  28.115659  3.642124  7.586153
C  29.560305  4.656395  6.600789
H  29.522406  4.162428  5.793997
C  30.455741  5.692506  6.749171
H  31.064046  5.858232  6.038090
C  32.188159  7.830246  11.207723
C  33.243540  10.758078  7.207167
H  32.554298  10.695127  6.558393
C  33.976461  11.869986  7.241854
H  33.832574  12.557943  6.603358
C  34.968892  12.015157  8.235569
H  35.483414  12.808459  8.305585
C  35.164808  10.946929  9.104027
C  34.352236  9.830524  8.989688
H  34.468501  9.127794  9.615979
C  36.179079  11.009237  10.144634
N  26.334423  7.380602  15.056042
N  22.780943  62.751814  8.784136
N  23.977641  1.128609  9.591570
N  26.299736  4.555546  12.006164
N  26.993474  3.945314  9.854934
N  28.166405  5.623132  11.065121
N  30.519333  6.471034  7.819327
N  33.423398  9.689207  8.060208
N  32.051980  7.896409  10.086822
N  36.172656  10.057274  11.079895
S  21.032466  61.654680  10.640528
S  32.348104  7.758946  12.863059
C  58.460273  38.647630  14.017362
H  57.657336  38.174861  13.816949
C  59.563188  38.419596  13.221490
C  60.742543  39.065800  13.520825
H  61.511436  38.964951  12.969046
C  60.777230  39.865526  14.644295
H  61.594941  40.256075  14.928214
C  59.628708  40.096772  15.352807
H  59.661468  40.705720  16.084444
C  54.177084  30.126215  9.538255
C  55.199063  33.192152  10.588497
H  54.522668  32.528604  10.534540
C  55.192639  34.018214  11.671499
H  54.503397  33.961044  12.320273
C  56.208837  34.936774  11.803824
H  56.237742  35.528379  12.545096
C  57.198698  34.978527  10.821028
C  57.095280  34.118420  9.763078
H  57.779382  34.140902  9.108523
C  58.320884  35.960680  10.917381
C  60.073857  36.980089  9.954498
C  59.434076  37.553708  12.042135
C  61.817195  38.321959  8.811115
H  61.832611  38.887869  9.571015
C  60.909554  37.231891  8.801480
C  60.845961  36.477772  7.652958
H  60.233159  35.759625  7.586153
C  61.677805  36.773895  6.600789
H  61.639906  36.279928  5.793997
C  62.573241  37.810006  6.749171
H  63.181546  37.975732  6.038090
C  0.070658  39.947747  11.207723
C  1.126040  42.875578  7.207167
H  0.436798  42.812627  6.558393
C  1.858961  43.987486  7.241854
H  1.715075  44.675443  6.603358
C  2.851392  44.132657  8.235569
H  3.365914  44.925959  8.305585
C  3.047308  43.064429  9.104027
C  2.234736  41.948024  8.989688
H  2.351001  41.245294  9.615979
C  4.061579  43.126737  10.144634
N  58.451923  39.498101  15.056042
N  54.898443  30.634314  8.784136
N  56.095141  33.246109  9.591570
N  58.417236  36.673046  12.006164
N  59.110974  36.062814  9.854934
N  60.283905  37.740632  11.065121
N  62.636833  38.588534  7.819327
N  1.305898  41.806707  8.060208
N  64.169480  40.013909  10.086822
N  4.055156  42.174774  11.079895
S  53.149966  29.537180  10.640528
S  0.230604  39.876446  12.863059
C  58.460273  6.530130  46.134862
H  57.657336  6.057360  45.934448
C  59.563188  6.302096  45.338990
C  60.742543  6.948300  45.638325
H  61.511436  6.847451  45.086546
C  60.777230  7.748026  46.761795
H  61.594941  8.138575  47.045714
C  59.628708  7.979272  47.470307
H  59.661468  8.588220  48.201944
C  54.177084  62.243715  41.655755
C  55.199063  1.074652  42.705997
H  54.522668  0.411104  42.652040
C  55.192639  1.900714  43.788999
H  54.503397  1.843544  44.437773
C  56.208837  2.819274  43.921324
H  56.237742  3.410878  44.662596
C  57.198698  2.861027  42.938528
C  57.095280  2.000920  41.880578
H  57.779382  2.023402  41.226023
C  58.320884  3.843180  43.034881
C  60.073857  4.862590  42.071998
C  59.434076  5.436208  44.159635
C  61.817195  6.204459  40.928615
H  61.832611  6.770369  41.688515
C  60.909554  5.114391  40.918980
C  60.845961  4.360272  39.770458
H  60.233159  3.642124  39.703654
C  61.677805  4.656395  38.718289
H  61.639906  4.162428  37.911497
C  62.573241  5.692506  38.866671
H  63.181546  5.858232  38.155590
C  0.070658  7.830246  43.325223
C  1.126040  10.758078  39.324667
H  0.436798  10.695127  38.675894
C  1.858961  11.869986  39.359354
H  1.715075  12.557943  38.720858
C  2.851392  12.015157  40.353069
H  3.365914  12.808459  40.423085
C  3.047308  10.946929  41.221527
C  2.234736  9.830524  41.107188
H  2.351001  9.127794  41.733480
C  4.061579  11.009237  42.262134
N  58.451923  7.380602  47.173542
N  54.898443  62.751814  40.901636
N  56.095141  1.128609  41.709070
N  58.417236  4.555546  44.123664
N  59.110974  3.945314  41.972434
N  60.283905  5.623132  43.182621
N  62.636833  6.471034  39.936827
N  1.305898  9.689207  40.177708
N  64.169480  7.896409  42.204322
N  4.055156  10.057274  43.197395
S  53.149966  61.654680  42.758028
S  0.230604  7.758946  44.980559
C  53.950976  9.528620  14.017362
H  54.753914  10.001390  13.816949
C  52.848062  9.756654  13.221490
C  51.668707  9.110450  13.520825
H  50.899814  9.211299  12.969046
C  51.634020  8.310724  14.644295
H  50.816308  7.920176  14.928214
C  52.782542  8.079478  15.352807
H  52.749782  7.470530  16.084444
C  58.234166  18.050035  9.538255
C  57.212187  14.984098  10.588497
H  57.888582  15.647646  10.534540
C  57.218611  14.158036  11.671499
H  57.907852  14.215205  12.320273
C  56.202413  13.239476  11.803824
H  56.173508  12.647871  12.545096
C  55.212552  13.197723  10.821028
C  55.315970  14.057830  9.763078
H  54.631867  14.035348  9.108523
C  54.090366  12.215570  10.917381
C  52.337393  11.196161  9.954498
C  52.977174  10.622542  12.042135
C  50.594055  9.854291  8.811115
H  50.578639  9.288381  9.571015
C  51.501696  10.944359  8.801480
C  51.565289  11.698478  7.652958
H  52.178091  12.416626  7.586153
C  50.733445  11.402355  6.600789
H  50.771344  11.896322  5.793997
C  49.838009  10.366244  6.749171
H  49.229704  10.200518  6.038090
C  48.105592  8.228503  11.207723
C  47.050210  5.300672  7.207167
H  47.739452  5.363622  6.558393
C  46.317289  4.188764  7.241854
H  46.461176  3.500808  6.603358
C  45.324858  4.043593  8.235569
H  44.810336  3.250291  8.305585
C  45.128942  5.111821  9.104027
C  45.941514  6.228226  8.989688
H  45.825249  6.930956  9.615979
C  44.114671  5.049513  10.144634
N  53.959327  8.678148  15.056042
N  57.512807  17.541936  8.784136
N  56.316109  14.930141  9.591570
N  53.994014  11.503204  12.006164
N  53.300276  12.113436  9.854934
N  52.127345  10.435618  11.065121
N  49.774417  9.587716  7.819327
N  46.870352  6.369543  8.060208
N  48.241770  8.162341  10.086822
N  44.121094  6.001476  11.079895
S  59.261284  18.639070  10.640528
S  47.945646  8.299804  12.863059
C  53.950976  41.646120  46.134862
H  54.753914  42.118889  45.934448
C  52.848062  41.874154  45.338990
C  51.668707  41.227950  45.638325
H  50.899814  41.328799  45.086546
C  51.634020  40.428224  46.761795
H  50.816308  40.037675  47.045714
C  52.782542  40.196978  47.470307
H  52.749782  39.588030  48.201944
C  58.234166  50.167535  41.655755
C  57.212187  47.101598  42.705997
H  57.888582  47.765146  42.652040
C  57.218611  46.275536  43.788999
H  57.907852  46.332706  44.437773
C  56.202413  45.356976  43.921324
H  56.173508  44.765372  44.662596
C  55.212552  45.315223  42.938528
C  55.315970  46.175330  41.880578
H  54.631867  46.152848  41.226023
C  54.090366  44.333070  43.034881
C  52.337393  43.313660  42.071998
C  52.977174  42.740042  44.159635
C  50.594055  41.971791  40.928615
H  50.578639  41.405881  41.688515
C  51.501696  43.061859  40.918980
C  51.565289  43.815978  39.770458
H  52.178091  44.534126  39.703654
C  50.733445  43.519855  38.718289
H  50.771344  44.013822  37.911497
C  49.838009  42.483744  38.866671
H  49.229704  42.318018  38.155590
C  48.105592  40.346004  43.325223
C  47.050210  37.418172  39.324667
H  47.739452  37.481122  38.675894
C  46.317289  36.306264  39.359354
H  46.461176  35.618308  38.720858
C  45.324858  36.161093  40.353069
H  44.810336  35.367791  40.423085
C  45.128942  37.229321  41.221527
C  45.941514  38.345726  41.107188
H  45.825249  39.048457  41.733480
C  44.114671  37.167013  42.262134
N  53.959327  40.795648  47.173542
N  57.512807  49.659436  40.901636
N  56.316109  47.047641  41.709070
N  53.994014  43.620704  44.123664
N  53.300276  44.230936  41.972434
N  52.127345  42.553118  43.182621
N  49.774417  41.705216  39.936827
N  46.870352  38.487043  40.177708
N  48.241770  40.279841  42.204322
N  44.121094  38.118976  43.197395
S  59.261284  50.756570  42.758028
S  47.945646  40.417304  44.980559
C  21.833476  9.528620  46.134862
H  22.636414  10.001390  45.934448
C  20.730562  9.756654  45.338990
C  19.551207  9.110450  45.638325
H  18.782314  9.211299  45.086546
C  19.516520  8.310724  46.761795
H  18.698809  7.920176  47.045714
C  20.665042  8.079478  47.470307
H  20.632282  7.470530  48.201944
C  26.116666  18.050035  41.655755
C  25.094687  14.984098  42.705997
H  25.771082  15.647646  42.652040
C  25.101111  14.158036  43.788999
H  25.790353  14.215205  44.437773
C  24.084913  13.239476  43.921324
H  24.056007  12.647871  44.662596
C  23.095052  13.197723  42.938528
C  23.198470  14.057830  41.880578
H  22.514367  14.035348  41.226023
C  21.972866  12.215570  43.034881
C  20.219893  11.196161  42.071998
C  20.859674  10.622542  44.159635
C  18.476555  9.854291  40.928615
H  18.461139  9.288381  41.688515
C  19.384196  10.944359  40.918980
C  19.447789  11.698478  39.770458
H  20.060590  12.416626  39.703654
C  18.615945  11.402355  38.718289
H  18.653844  11.896322  37.911497
C  17.720509  10.366244  38.866671
H  17.112204  10.200518  38.155590
C  15.988092  8.228503  43.325223
C  14.932710  5.300672  39.324667
H  15.621952  5.363622  38.675894
C  14.199789  4.188764  39.359354
H  14.343675  3.500808  38.720858
C  13.207358  4.043593  40.353069
H  12.692836  3.250291  40.423085
C  13.011442  5.111821  41.221527
C  13.824014  6.228226  41.107188
H  13.707749  6.930956  41.733480
C  11.997171  5.049513  42.262134
N  21.841827  8.678148  47.173542
N  25.395307  17.541936  40.901636
N  24.198609  14.930141  41.709070
N  21.876514  11.503204  44.123664
N  21.182776  12.113436  41.972434
N  20.009845  10.435618  43.182621
N  17.656917  9.587716  39.936827
N  14.752852  6.369543  40.177708
N  16.124270  8.162341  42.204322
N  12.003594  6.001476  43.197395
S  27.143784  18.639070  42.758028
S  15.828146  8.299804  44.980559
C  21.833476  41.646120  14.017362
H  22.636414  42.118889  13.816949
C  20.730562  41.874154  13.221490
C  19.551207  41.227950  13.520825
H  18.782314  41.328799  12.969046
C  19.516520  40.428224  14.644295
H  18.698809  40.037675  14.928214
C  20.665042  40.196978  15.352807
H  20.632282  39.588030  16.084444
C  26.116666  50.167535  9.538255
C  25.094687  47.101598  10.588497
H  25.771082  47.765146  10.534540
C  25.101111  46.275536  11.671499
H  25.790353  46.332706  12.320273
C  24.084913  45.356976  11.803824
H  24.056007  44.765372  12.545096
C  23.095052  45.315223  10.821028
C  23.198470  46.175330  9.763078
H  22.514367  46.152848  9.108523
C  21.972866  44.333070  10.917381
C  20.219893  43.313660  9.954498
C  20.859674  42.740042  12.042135
C  18.476555  41.971791  8.811115
H  18.461139  41.405881  9.571015
C  19.384196  43.061859  8.801480
C  19.447789  43.815978  7.652958
H  20.060590  44.534126  7.586153
C  18.615945  43.519855  6.600789
H  18.653844  44.013822  5.793997
C  17.720509  42.483744  6.749171
H  17.112204  42.318018  6.038090
C  15.988092  40.346004  11.207723
C  14.932710  37.418172  7.207167
H  15.621952  37.481122  6.558393
C  14.199789  36.306264  7.241854
H  14.343675  35.618308  6.603358
C  13.207358  36.161093  8.235569
H  12.692836  35.367791  8.305585
C  13.011442  37.229321  9.104027
C  13.824014  38.345726  8.989688
H  13.707749  39.048457  9.615979
C  11.997171  37.167013  10.144634
N  21.841827  40.795648  15.056042
N  25.395307  49.659436  8.784136
N  24.198609  47.047641  9.591570
N  21.876514  43.620704  12.006164
N  21.182776  44.230936  9.854934
N  20.009845  42.553118  11.065121
N  17.656917  41.705216  7.819327
N  14.752852  38.487043  8.060208
N  16.124270  40.279841  10.086822
N  12.003594  38.118976  11.079895
S  27.143784  50.756570  10.640528
S  15.828146  40.417304  12.863059
C  58.460273  41.646120  2.041388
H  57.657336  42.118889  2.241802
C  59.563188  41.874154  2.837260
C  60.742543  41.227950  2.537925
H  61.511436  41.328799  3.089703
C  60.777230  40.428224  1.414455
H  61.594941  40.037675  1.130536
C  59.628708  40.196978  0.705943
H  59.661468  39.588030  64.209306
C  54.177084  50.167535  6.520495
C  55.199063  47.101598  5.470253
H  54.522668  47.765146  5.524210
C  55.192639  46.275536  4.387250
H  54.503397  46.332706  3.738477
C  56.208837  45.356976  4.254926
H  56.237742  44.765372  3.513654
C  57.198698  45.315223  5.237722
C  57.095280  46.175330  6.295672
H  57.779382  46.152848  6.950227
C  58.320884  44.333070  5.141369
C  60.073857  43.313660  6.104252
C  59.434076  42.740042  4.016615
C  61.817195  41.971791  7.247635
H  61.832611  41.405881  6.487735
C  60.909554  43.061859  7.257270
C  60.845961  43.815978  8.405792
H  60.233159  44.534126  8.472596
C  61.677805  43.519855  9.457961
H  61.639906  44.013822  10.264753
C  62.573241  42.483744  9.309579
H  63.181546  42.318018  10.020660
C  0.070658  40.346004  4.851027
C  1.126040  37.418172  8.851583
H  0.436798  37.481122  9.500357
C  1.858961  36.306264  8.816896
H  1.715075  35.618308  9.455392
C  2.851392  36.161093  7.823181
H  3.365914  35.367791  7.753165
C  3.047308  37.229321  6.954723
C  2.234736  38.345726  7.069062
H  2.351001  39.048457  6.442770
C  4.061579  37.167013  5.914116
N  58.451923  40.795648  1.002708
N  54.898443  49.659436  7.274614
N  56.095141  47.047641  6.467180
N  58.417236  43.620704  4.052586
N  59.110974  44.230936  6.203816
N  60.283905  42.553118  4.993629
N  62.636833  41.705216  8.239423
N  1.305898  38.487043  7.998542
N  64.169480  40.279841  5.971928
N  4.055156  38.118976  4.978855
S  53.149966  50.756570  5.418222
S  0.230604  40.417304  3.195691
C  58.460273  9.528620  34.158888
H  57.657336  10.001390  34.359302
C  59.563188  9.756654  34.954760
C  60.742543  9.110450  34.655425
H  61.511436  9.211299  35.207203
C  60.777230  8.310724  33.531955
H  61.594941  7.920176  33.248036
C  59.628708  8.079478  32.823443
H  59.661468  7.470530  32.091806
C  54.177084  18.050035  38.637995
C  55.199063  14.984098  37.587753
H  54.522668  15.647646  37.641710
C  55.192639  14.158036  36.504751
H  54.503397  14.215205  35.855977
C  56.208837  13.239476  36.372426
H  56.237742  12.647871  35.631155
C  57.198698  13.197723  37.355222
C  57.095280  14.057830  38.413172
H  57.779382  14.035348  39.067727
C  58.320884  12.215570  37.258869
C  60.073857  11.196161  38.221752
C  59.434076  10.622542  36.134115
C  61.817195  9.854291  39.365135
H  61.832611  9.288381  38.605235
C  60.909554  10.944359  39.374770
C  60.845961  11.698478  40.523292
H  60.233159  12.416626  40.590097
C  61.677805  11.402355  41.575461
H  61.639906  11.896322  42.382253
C  62.573241  10.366244  41.427079
H  63.181546  10.200518  42.138160
C  0.070658  8.228503  36.968527
C  1.126040  5.300672  40.969083
H  0.436798  5.363622  41.617857
C  1.858961  4.188764  40.934396
H  1.715075  3.500808  41.572892
C  2.851392  4.043593  39.940681
H  3.365914  3.250291  39.870665
C  3.047308  5.111821  39.072223
C  2.234736  6.228226  39.186562
H  2.351001  6.930956  38.560270
C  4.061579  5.049513  38.031616
N  58.451923  8.678148  33.120208
N  54.898443  17.541936  39.392114
N  56.095141  14.930141  38.584680
N  58.417236  11.503204  36.170086
N  59.110974  12.113436  38.321316
N  60.283905  10.435618  37.111129
N  62.636833  9.587716  40.356923
N  1.305898  6.369543  40.116042
N  64.169480  8.162341  38.089428
N  4.055156  6.001476  37.096355
S  53.149966  18.639070  37.535722
S  0.230604  8.299804  35.313191
C  26.342773  41.646120  34.158888
H  25.539836  42.118889  34.359302
C  27.445688  41.874154  34.954760
C  28.625043  41.227950  34.655425
H  29.393936  41.328799  35.207203
C  28.659730  40.428224  33.531955
H  29.477441  40.037675  33.248036
C  27.511208  40.196978  32.823443
H  27.543968  39.588030  32.091806
C  22.059584  50.167535  38.637995
C  23.081563  47.101598  37.587753
H  22.405168  47.765146  37.641710
C  23.075139  46.275536  36.504751
H  22.385897  46.332706  35.855977
C  24.091337  45.356976  36.372426
H  24.120242  44.765372  35.631155
C  25.081198  45.315223  37.355222
C  24.977780  46.175330  38.413172
H  25.661883  46.152848  39.067727
C  26.203384  44.333070  37.258869
C  27.956357  43.313660  38.221752
C  27.316576  42.740042  36.134115
C  29.699695  41.971791  39.365135
H  29.715111  41.405881  38.605235
C  28.792054  43.061859  39.374770
C  28.728461  43.815978  40.523292
H  28.115659  44.534126  40.590097
C  29.560305  43.519855  41.575461
H  29.522406  44.013822  42.382253
C  30.455741  42.483744  41.427079
H  31.064046  42.318018  42.138160
C  32.188159  40.346004  36.968527
C  33.243540  37.418172  40.969083
H  32.554298  37.481122  41.617857
C  33.976461  36.306264  40.934396
H  33.832574  35.618308  41.572892
C  34.968892  36.161093  39.940681
H  35.483414  35.367791  39.870665
C  35.164808  37.229321  39.072223
C  34.352236  38.345726  39.186562
H  34.468501  39.048457  38.560270
C  36.179079  37.167013  38.031616
N  26.334423  40.795648  33.120208
N  22.780943  49.659436  39.392114
N  23.977641  47.047641  38.584680
N  26.299736  43.620704  36.170086
N  26.993474  44.230936  38.321316
N  28.166405  42.553118  37.111129
N  30.519333  41.705216  40.356923
N  33.423398  38.487043  40.116042
N  32.051980  40.279841  38.089428
N  36.172656  38.118976  37.096355
S  21.032466  50.756570  37.535722
S  32.348104  40.417304  35.313191
C  26.342773  9.528620  2.041388
H  25.539836  10.001390  2.241802
C  27.445688  9.756654  2.837260
C  28.625043  9.110450  2.537925
H  29.393936  9.211299  3.089703
C  28.659730  8.310724  1.414455
H  29.477441  7.920176  1.130536
C  27.511208  8.079478  0.705943
H  27.543968  7.470530  64.209306
C  22.059584  18.050035  6.520495
C  23.081563  14.984098  5.470253
H  22.405168  15.647646  5.524210
C  23.075139  14.158036  4.387250
H  22.385897  14.215205  3.738477
C  24.091337  13.239476  4.254926
H  24.120242  12.647871  3.513654
C  25.081198  13.197723  5.237722
C  24.977780  14.057830  6.295672
H  25.661883  14.035348  6.950227
C  26.203384  12.215570  5.141369
C  27.956357  11.196161  6.104252
C  27.316576  10.622542  4.016615
C  29.699695  9.854291  7.247635
H  29.715111  9.288381  6.487735
C  28.792054  10.944359  7.257270
C  28.728461  11.698478  8.405792
H  28.115659  12.416626  8.472596
C  29.560305  11.402355  9.457961
H  29.522406  11.896322  10.264753
C  30.455741  10.366244  9.309579
H  31.064046  10.200518  10.020660
C  32.188159  8.228503  4.851027
C  33.243540  5.300672  8.851583
H  32.554298  5.363622  9.500357
C  33.976461  4.188764  8.816896
H  33.832574  3.500808  9.455392
C  34.968892  4.043593  7.823181
H  35.483414  3.250291  7.753165
C  35.164808  5.111821  6.954723
C  34.352236  6.228226  7.069062
H  34.468501  6.930956  6.442770
C  36.179079  5.049513  5.914116
N  26.334423  8.678148  1.002708
N  22.780943  17.541936  7.274614
N  23.977641  14.930141  6.467180
N  26.299736  11.503204  4.052586
N  26.993474  12.113436  6.203816
N  28.166405  10.435618  4.993629
N  30.519333  9.587716  8.239423
N  33.423398  6.369543  7.998542
N  32.051980  8.162341  5.971928
N  36.172656  6.001476  4.978855
S  21.032466  18.639070  5.418222
S  32.348104  8.299804  3.195691
C  5.774726  50.217638  57.704870
H  6.577664  50.418052  58.177639
C  4.671812  51.013510  57.932904
C  3.492457  50.714175  57.286700
H  2.723564  51.265954  57.387549
C  3.457770  49.590705  56.486974
H  2.640058  49.306786  56.096425
C  4.606292  48.882193  56.255728
H  4.573532  48.150556  55.646780
C  10.057916  54.696745  1.991285
C  9.035937  53.646503  63.160348
H  9.712332  53.700460  63.823896
C  9.042361  52.563501  62.334286
H  9.731602  51.914727  62.391455
C  8.026163  52.431176  61.415726
H  7.997257  51.689904  60.824121
C  7.036302  53.413972  61.373973
C  7.139720  54.471922  62.234080
H  6.455618  55.126477  62.211598
C  5.914116  53.317619  60.391820
C  4.161143  54.280502  59.372411
C  4.800924  52.192865  58.798792
C  2.417805  55.423885  58.030541
H  2.402389  54.663985  57.464631
C  3.325446  55.433520  59.120609
C  3.389039  56.582042  59.874728
H  4.001841  56.648846  60.592875
C  2.557195  57.634211  59.578605
H  2.595094  58.441003  60.072572
C  1.661759  57.485829  58.542494
H  1.053454  58.196910  58.376768
C  64.164342  53.027277  56.404753
C  63.108960  57.027833  53.476922
H  63.798202  57.676606  53.539873
C  62.376039  56.993146  52.365014
H  62.519925  57.631642  51.677057
C  61.383608  55.999431  52.219843
H  60.869086  55.929415  51.426541
C  61.187692  55.130973  53.288071
C  62.000264  55.245312  54.404476
H  61.883999  54.619020  55.107206
C  60.173421  54.090366  53.225763
N  5.783077  49.178958  56.854399
N  9.336557  55.450864  1.483186
N  8.139859  54.643430  63.106391
N  5.817764  52.228836  59.679454
N  5.124026  54.380066  60.289686
N  3.951095  53.169879  58.611868
N  1.598167  56.415673  57.763966
N  62.929102  56.174792  54.545793
N  0.065520  54.148178  56.338591
N  60.179844  53.155105  54.177726
S  11.085034  53.594472  2.580320
S  64.004396  51.371941  56.476054
C  5.774726  18.100138  25.587370
H  6.577664  18.300551  26.060140
C  4.671812  18.896010  25.815404
C  3.492457  18.596675  25.169200
H  2.723564  19.148453  25.270049
C  3.457770  17.473205  24.369474
H  2.640058  17.189286  23.978926
C  4.606292  16.764693  24.138228
H  4.573532  16.033056  23.529281
C  10.057916  22.579245  34.108785
C  9.035937  21.529003  31.042848
H  9.712332  21.582960  31.706396
C  9.042361  20.446001  30.216786
H  9.731602  19.797227  30.273955
C  8.026163  20.313676  29.298226
H  7.997257  19.572405  28.706622
C  7.036302  21.296472  29.256473
C  7.139720  22.354422  30.116580
H  6.455618  23.008977  30.094098
C  5.914116  21.200119  28.274320
C  4.161143  22.163002  27.254911
C  4.800924  20.075365  26.681292
C  2.417805  23.306385  25.913041
H  2.402389  22.546485  25.347131
C  3.325446  23.316020  27.003109
C  3.389039  24.464542  27.757228
H  4.001841  24.531347  28.475376
C  2.557195  25.516711  27.461105
H  2.595094  26.323503  27.955072
C  1.661759  25.368329  26.424994
H  1.053454  26.079410  26.259268
C  64.164342  20.909777  24.287253
C  63.108960  24.910333  21.359422
H  63.798202  25.559106  21.422373
C  62.376039  24.875646  20.247514
H  62.519925  25.514142  19.559558
C  61.383608  23.881931  20.102343
H  60.869086  23.811914  19.309041
C  61.187692  23.013473  21.170571
C  62.000264  23.127812  22.286976
H  61.883999  22.501521  22.989707
C  60.173421  21.972866  21.108263
N  5.783077  17.061458  24.736898
N  9.336557  23.333364  33.600686
N  8.139859  22.525930  30.988891
N  5.817764  20.111336  27.561954
N  5.124026  22.262566  28.172186
N  3.951095  21.052379  26.494368
N  1.598167  24.298173  25.646466
N  62.929102  24.057292  22.428293
N  0.065520  22.030678  24.221091
N  60.179844  21.037605  22.060226
S  11.085034  21.476972  34.697820
S  64.004396  19.254441  24.358554
C  37.892226  50.217638  25.587370
H  38.695164  50.418052  26.060140
C  36.789312  51.013510  25.815404
C  35.609957  50.714175  25.169200
H  34.841064  51.265954  25.270049
C  35.575270  49.590705  24.369474
H  34.757559  49.306786  23.978926
C  36.723792  48.882193  24.138228
H  36.691032  48.150556  23.529281
C  42.175416  54.696745  34.108785
C  41.153437  53.646503  31.042848
H  41.829832  53.700460  31.706396
C  41.159861  52.563501  30.216786
H  41.849103  51.914727  30.273955
C  40.143663  52.431176  29.298226
H  40.114758  51.689904  28.706622
C  39.153802  53.413972  29.256473
C  39.257220  54.471922  30.116580
H  38.573118  55.126477  30.094098
C  38.031616  53.317619  28.274320
C  36.278643  54.280502  27.254911
C  36.918424  52.192865  26.681292
C  34.535305  55.423885  25.913041
H  34.519889  54.663985  25.347131
C  35.442946  55.433520  27.003109
C  35.506539  56.582042  27.757228
H  36.119340  56.648846  28.475376
C  34.674695  57.634211  27.461105
H  34.712594  58.441003  27.955072
C  33.779259  57.485829  26.424994
H  33.170954  58.196910  26.259268
C  32.046841  53.027277  24.287253
C  30.991460  57.027833  21.359422
H  31.680702  57.676606  21.422373
C  30.258539  56.993146  20.247514
H  30.402425  57.631642  19.559558
C  29.266108  55.999431  20.102343
H  28.751586  55.929415  19.309041
C  29.070192  55.130973  21.170571
C  29.882764  55.245312  22.286976
H  29.766499  54.619020  22.989707
C  28.055921  54.090366  21.108263
N  37.900577  49.178958  24.736898
N  41.454057  55.450864  33.600686
N  40.257359  54.643430  30.988891
N  37.935264  52.228836  27.561954
N  37.241526  54.380066  28.172186
N  36.068595  53.169879  26.494368
N  33.715667  56.415673  25.646466
N  30.811602  56.174792  22.428293
N  32.183020  54.148178  24.221091
N  28.062344  53.155105  22.060226
S  43.202534  53.594472  34.697820
S  31.886896  51.371941  24.358554
C  37.892226  18.100138  57.704870
H  38.695164  18.300551  58.177639
C  36.789312  18.896010  57.932904
C  35.609957  18.596675  57.286700
H  34.841064  19.148453  57.387549
C  35.575270  17.473205  56.486974
H  34.757559  17.189286  56.096425
C  36.723792  16.764693  56.255728
H  36.691032  16.033056  55.646780
C  42.175416  22.579245  1.991285
C  41.153437  21.529003  63.160348
H  41.829832  21.582960  63.823896
C  41.159861  20.446001  62.334286
H  41.849103  19.797227  62.391455
C  40.143663  20.313676  61.415726
H  40.114758  19.572405  60.824121
C  39.153802  21.296472  61.373973
C  39.257220  22.354422  62.234080
H  38.573118  23.008977  62.211598
C  38.031616  21.200119  60.391820
C  36.278643  22.163002  59.372411
C  36.918424  20.075365  58.798792
C  34.535305  23.306385  58.030541
H  34.519889  22.546485  57.464631
C  35.442946  23.316020  59.120609
C  35.506539  24.464542  59.874728
H  36.119340  24.531347  60.592875
C  34.674695  25.516711  59.578605
H  34.712594  26.323503  60.072572
C  33.779259  25.368329  58.542494
H  33.170954  26.079410  58.376768
C  32.046841  20.909777  56.404753
C  30.991460  24.910333  53.476922
H  31.680702  25.559106  53.539873
C  30.258539  24.875646  52.365014
H  30.402425  25.514142  51.677057
C  29.266108  23.881931  52.219843
H  28.751586  23.811914  51.426541
C  29.070192  23.013473  53.288071
C  29.882764  23.127812  54.404476
H  29.766499  22.501521  55.107206
C  28.055921  21.972866  53.225763
N  37.900577  17.061458  56.854399
N  41.454057  23.333364  1.483186
N  40.257359  22.525930  63.106391
N  37.935264  20.111336  59.679454
N  37.241526  22.262566  60.289686
N  36.068595  21.052379  58.611868
N  33.715667  24.298173  57.763966
N  30.811602  24.057292  54.545793
N  32.183020  22.030678  56.338591
N  28.062344  21.037605  54.177726
S  43.202534  21.476972  2.580320
S  31.886896  19.254441  56.476054
C  10.284023  62.193612  25.587370
H  9.481086  61.993198  26.060140
C  11.386938  61.397740  25.815404
C  12.566293  61.697075  25.169200
H  13.335186  61.145297  25.270049
C  12.600980  62.820545  24.369474
H  13.418691  63.104464  23.978926
C  11.452458  63.529057  24.138228
H  11.485218  0.025694  23.529281
C  6.000834  57.714505  34.108785
C  7.022813  58.764747  31.042848
H  6.346418  58.710790  31.706396
C  7.016389  59.847749  30.216786
H  6.327148  60.496523  30.273955
C  8.032587  59.980074  29.298226
H  8.061492  60.721345  28.706622
C  9.022448  58.997278  29.256473
C  8.919030  57.939328  30.116580
H  9.603132  57.284773  30.094098
C  10.144634  59.093631  28.274320
C  11.897607  58.130748  27.254911
C  11.257826  60.218385  26.681292
C  13.640945  56.987365  25.913041
H  13.656361  57.747265  25.347131
C  12.733304  56.977730  27.003109
C  12.669711  55.829208  27.757228
H  12.056909  55.762403  28.475376
C  13.501555  54.777039  27.461105
H  13.463656  53.970247  27.955072
C  14.396991  54.925421  26.424994
H  15.005296  54.214340  26.259268
C  16.129409  59.383973  24.287253
C  17.184790  55.383417  21.359422
H  16.495548  54.734643  21.422373
C  17.917711  55.418104  20.247514
H  17.773824  54.779608  19.559558
C  18.910142  56.411819  20.102343
H  19.424664  56.481835  19.309041
C  19.106058  57.280277  21.170571
C  18.293486  57.165938  22.286976
H  18.409751  57.792230  22.989707
C  20.120329  58.320884  21.108263
N  10.275673  63.232292  24.736898
N  6.722193  56.960386  33.600686
N  7.918891  57.767820  30.988891
N  10.240986  60.182414  27.561954
N  10.934724  58.031184  28.172186
N  12.107655  59.241371  26.494368
N  14.460583  55.995577  25.646466
N  17.364648  56.236458  22.428293
N  15.993230  58.263072  24.221091
N  20.113906  59.256145  22.060226
S  4.973716  58.816778  34.697820
S  16.289354  61.039309  24.358554
C  10.284023  30.076112  57.704870
H  9.481086  29.875699  58.177639
C  11.386938  29.280240  57.932904
C  12.566293  29.579575  57.286700
H  13.335186  29.027797  57.387549
C  12.600980  30.703045  56.486974
H  13.418691  30.986964  56.096425
C  11.452458  31.411557  56.255728
H  11.485218  32.143194  55.646780
C  6.000834  25.597005  1.991285
C  7.022813  26.647247  63.160348
H  6.346418  26.593290  63.823896
C  7.016389  27.730249  62.334286
H  6.327148  28.379023  62.391455
C  8.032587  27.862574  61.415726
H  8.061492  28.603845  60.824121
C  9.022448  26.879778  61.373973
C  8.919030  25.821828  62.234080
H  9.603132  25.167273  62.211598
C  10.144634  26.976131  60.391820
C  11.897607  26.013248  59.372411
C  11.257826  28.100885  58.798792
C  13.640945  24.869865  58.030541
H  13.656361  25.629765  57.464631
C  12.733304  24.860230  59.120609
C  12.669711  23.711708  59.874728
H  12.056909  23.644903  60.592875
C  13.501555  22.659539  59.578605
H  13.463656  21.852747  60.072572
C  14.396991  22.807921  58.542494
H  15.005296  22.096840  58.376768
C  16.129409  27.266473  56.404753
C  17.184790  23.265917  53.476922
H  16.495548  22.617144  53.539873
C  17.917711  23.300604  52.365014
H  17.773824  22.662108  51.677057
C  18.910142  24.294319  52.219843
H  19.424664  24.364336  51.426541
C  19.106058  25.162777  53.288071
C  18.293486  25.048438  54.404476
H  18.409751  25.674729  55.107206
C  20.120329  26.203384  53.225763
N  10.275673  31.114792  56.854399
N  6.722193  24.842886  1.483186
N  7.918891  25.650320  63.106391
N  10.240986  28.064914  59.679454
N  10.934724  25.913684  60.289686
N  12.107655  27.123871  58.611868
N  14.460583  23.878077  57.763966
N  17.364648  24.118958  54.545793
N  15.993230  26.145572  56.338591
N  20.113906  27.138645  54.177726
S  4.973716  26.699278  2.580320
S  16.289354  28.921809  56.476054
C  42.401524  62.193612  57.704870
H  41.598586  61.993198  58.177639
C  43.504438  61.397740  57.932904
C  44.683793  61.697075  57.286700
H  45.452686  61.145297  57.387549
C  44.718480  62.820545  56.486974
H  45.536192  63.104464  56.096425
C  43.569958  63.529057  56.255728
H  43.602718  0.025694  55.646780
C  38.118334  57.714505  1.991285
C  39.140313  58.764747  63.160348
H  38.463918  58.710790  63.823896
C  39.133889  59.847749  62.334286
H  38.444648  60.496523  62.391455
C  40.150087  59.980074  61.415726
H  40.178992  60.721345  60.824121
C  41.139948  58.997278  61.373973
C  41.036530  57.939328  62.234080
H  41.720633  57.284773  62.211598
C  42.262134  59.093631  60.391820
C  44.015107  58.130748  59.372411
C  43.375326  60.218385  58.798792
C  45.758445  56.987365  58.030541
H  45.773861  57.747265  57.464631
C  44.850804  56.977730  59.120609
C  44.787211  55.829208  59.874728
H  44.174409  55.762403  60.592875
C  45.619055  54.777039  59.578605
H  45.581156  53.970247  60.072572
C  46.514491  54.925421  58.542494
H  47.122796  54.214340  58.376768
C  48.246908  59.383973  56.404753
C  49.302290  55.383417  53.476922
H  48.613048  54.734643  53.539873
C  50.035211  55.418104  52.365014
H  49.891324  54.779608  51.677057
C  51.027642  56.411819  52.219843
H  51.542164  56.481835  51.426541
C  51.223558  57.280277  53.288071
C  50.410986  57.165938  54.404476
H  50.527251  57.792230  55.107206
C  52.237829  58.320884  53.225763
N  42.393173  63.232292  56.854399
N  38.839693  56.960386  1.483186
N  40.036391  57.767820  63.106391
N  42.358486  60.182414  59.679454
N  43.052224  58.031184  60.289686
N  44.225155  59.241371  58.611868
N  46.578083  55.995577  57.763966
N  49.482148  56.236458  54.545793
N  48.110730  58.263072  56.338591
N  52.231406  59.256145  54.177726
S  37.091216  58.816778  2.580320
S  48.406854  61.039309  56.476054
C  42.401524  30.076112  25.587370
H  41.598586  29.875699  26.060140
C  43.504438  29.280240  25.815404
C  44.683793  29.579575  25.169200
H  45.452686  29.027797  25.270049
C  44.718480  30.703045  24.369474
H  45.536192  30.986964  23.978926
C  43.569958  31.411557  24.138228
H  43.602718  32.143194  23.529281
C  38.118334  25.597005  34.108785
C  39.140313  26.647247  31.042848
H  38.463918  26.593290  31.706396
C  39.133889  27.730249  30.216786
H  38.444648  28.379023  30.273955
C  40.150087  27.862574  29.298226
H  40.178992  28.603845  28.706622
C  41.139948  26.879778  29.256473
C  41.036530  25.821828  30.116580
H  41.720633  25.167273  30.094098
C  42.262134  26.976131  28.274320
C  44.015107  26.013248  27.254911
C  43.375326  28.100885  26.681292
C  45.758445  24.869865  25.913041
H  45.773861  25.629765  25.347131
C  44.850804  24.860230  27.003109
C  44.787211  23.711708  27.757228
H  44.174409  23.644903  28.475376
C  45.619055  22.659539  27.461105
H  45.581156  21.852747  27.955072
C  46.514491  22.807921  26.424994
H  47.122796  22.096840  26.259268
C  48.246908  27.266473  24.287253
C  49.302290  23.265917  21.359422
H  48.613048  22.617144  21.422373
C  50.035211  23.300604  20.247514
H  49.891324  22.662108  19.559558
C  51.027642  24.294319  20.102343
H  51.542164  24.364336  19.309041
C  51.223558  25.162777  21.170571
C  50.410986  25.048438  22.286976
H  50.527251  25.674729  22.989707
C  52.237829  26.203384  21.108263
N  42.393173  31.114792  24.736898
N  38.839693  24.842886  33.600686
N  40.036391  25.650320  30.988891
N  42.358486  28.064914  27.561954
N  43.052224  25.913684  28.172186
N  44.225155  27.123871  26.494368
N  46.578083  23.878077  25.646466
N  49.482148  24.118958  22.428293
N  48.110730  26.145572  24.221091
N  52.231406  27.138645  22.060226
S  37.091216  26.699278  34.697820
S  48.406854  28.921809  24.358554
C  37.892226  30.076112  54.706380
H  38.695164  29.875699  54.233611
C  36.789312  29.280240  54.478346
C  35.609957  29.579575  55.124550
H  34.841064  29.027797  55.023701
C  35.575270  30.703045  55.924276
H  34.757559  30.986964  56.314825
C  36.723792  31.411557  56.155522
H  36.691032  32.143194  56.764470
C  42.175416  25.597005  46.184965
C  41.153437  26.647247  49.250902
H  41.829832  26.593290  48.587354
C  41.159861  27.730249  50.076964
H  41.849103  28.379023  50.019794
C  40.143663  27.862574  50.995524
H  40.114758  28.603845  51.587128
C  39.153802  26.879778  51.037277
C  39.257220  25.821828  50.177170
H  38.573118  25.167273  50.199652
C  38.031616  26.976131  52.019430
C  36.278643  26.013248  53.038840
C  36.918424  28.100885  53.612458
C  34.535305  24.869865  54.380709
H  34.519889  25.629765  54.946619
C  35.442946  24.860230  53.290641
C  35.506539  23.711708  52.536522
H  36.119340  23.644903  51.818374
C  34.674695  22.659539  52.832645
H  34.712594  21.852747  52.338678
C  33.779259  22.807921  53.868756
H  33.170954  22.096840  54.034482
C  32.046841  27.266473  56.006496
C  30.991460  23.265917  58.934328
H  31.680702  22.617144  58.871378
C  30.258539  23.300604  60.046236
H  30.402425  22.662108  60.734192
C  29.266108  24.294319  60.191407
H  28.751586  24.364336  60.984709
C  29.070192  25.162777  59.123179
C  29.882764  25.048438  58.006774
H  29.766499  25.674729  57.304043
C  28.055921  26.203384  59.185487
N  37.900577  31.114792  55.556852
N  41.454057  24.842886  46.693064
N  40.257359  25.650320  49.304859
N  37.935264  28.064914  52.731796
N  37.241526  25.913684  52.121564
N  36.068595  27.123871  53.799382
N  33.715667  23.878077  54.647284
N  30.811602  24.118958  57.865457
N  32.183020  26.145572  56.072659
N  28.062344  27.138645  58.233524
S  43.202534  26.699278  45.595930
S  31.886896  28.921809  55.935196
C  37.892226  62.193612  22.588880
H  38.695164  61.993198  22.116110
C  36.789312  61.397740  22.360846
C  35.609957  61.697075  23.007050
H  34.841064  61.145297  22.906201
C  35.575270  62.820545  23.806776
H  34.757559  63.104464  24.197324
C  36.723792  63.529057  24.038022
H  36.691032  0.025694  24.646969
C  42.175416  57.714505  14.067465
C  41.153437  58.764747  17.133402
H  41.829832  58.710790  16.469854
C  41.159861  59.847749  17.959464
H  41.849103  60.496523  17.902294
C  40.143663  59.980074  18.878024
H  40.114758  60.721345  19.469628
C  39.153802  58.997278  18.919777
C  39.257220  57.939328  18.059670
H  38.573118  57.284773  18.082152
C  38.031616  59.093631  19.901930
C  36.278643  58.130748  20.921339
C  36.918424  60.218385  21.494958
C  34.535305  56.987365  22.263209
H  34.519889  57.747265  22.829119
C  35.442946  56.977730  21.173141
C  35.506539  55.829208  20.419022
H  36.119340  55.762403  19.700874
C  34.674695  54.777039  20.715145
H  34.712594  53.970247  20.221178
C  33.779259  54.925421  21.751256
H  33.170954  54.214340  21.916982
C  32.046841  59.383973  23.888997
C  30.991460  55.383417  26.816828
H  31.680702  54.734643  26.753877
C  30.258539  55.418104  27.928736
H  30.402425  54.779608  28.616692
C  29.266108  56.411819  28.073907
H  28.751586  56.481835  28.867209
C  29.070192  57.280277  27.005679
C  29.882764  57.165938  25.889274
H  29.766499  57.792230  25.186543
C  28.055921  58.320884  27.067987
N  37.900577  63.232292  23.439352
N  41.454057  56.960386  14.575564
N  40.257359  57.767820  17.187359
N  37.935264  60.182414  20.614296
N  37.241526  58.031184  20.004064
N  36.068595  59.241371  21.681882
N  33.715667  55.995577  22.529784
N  30.811602  56.236458  25.747957
N  32.183020  58.263072  23.955159
N  28.062344  59.256145  26.116024
S  43.202534  58.816778  13.478430
S  31.886896  61.039309  23.817696
C  5.774726  30.076112  22.588880
H  6.577664  29.875699  22.116110
C  4.671812  29.280240  22.360846
C  3.492457  29.579575  23.007050
H  2.723564  29.027797  22.906201
C  3.457770  30.703045  23.806776
H  2.640058  30.986964  24.197324
C  4.606292  31.411557  24.038022
H  4.573532  32.143194  24.646969
C  10.057916  25.597005  14.067465
C  9.035937  26.647247  17.133402
H  9.712332  26.593290  16.469854
C  9.042361  27.730249  17.959464
H  9.731602  28.379023  17.902294
C  8.026163  27.862574  18.878024
H  7.997257  28.603845  19.469628
C  7.036302  26.879778  18.919777
C  7.139720  25.821828  18.059670
H  6.455618  25.167273  18.082152
C  5.914116  26.976131  19.901930
C  4.161143  26.013248  20.921339
C  4.800924  28.100885  21.494958
C  2.417805  24.869865  22.263209
H  2.402389  25.629765  22.829119
C  3.325446  24.860230  21.173141
C  3.389039  23.711708  20.419022
H  4.001841  23.644903  19.700874
C  2.557195  22.659539  20.715145
H  2.595094  21.852747  20.221178
C  1.661759  22.807921  21.751256
H  1.053454  22.096840  21.916982
C  64.164342  27.266473  23.888997
C  63.108960  23.265917  26.816828
H  63.798202  22.617144  26.753877
C  62.376039  23.300604  27.928736
H  62.519925  22.662108  28.616692
C  61.383608  24.294319  28.073907
H  60.869086  24.364336  28.867209
C  61.187692  25.162777  27.005679
C  62.000264  25.048438  25.889274
H  61.883999  25.674729  25.186543
C  60.173421  26.203384  27.067987
N  5.783077  31.114792  23.439352
N  9.336557  24.842886  14.575564
N  8.139859  25.650320  17.187359
N  5.817764  28.064914  20.614296
N  5.124026  25.913684  20.004064
N  3.951095  27.123871  21.681882
N  1.598167  23.878077  22.529784
N  62.929102  24.118958  25.747957
N  0.065520  26.145572  23.955159
N  60.179844  27.138645  26.116024
S  11.085034  26.699278  13.478430
S  64.004396  28.921809  23.817696
C  5.774726  62.193612  54.706380
H  6.577664  61.993198  54.233611
C  4.671812  61.397740  54.478346
C  3.492457  61.697075  55.124550
H  2.723564  61.145297  55.023701
C  3.457770  62.820545  55.924276
H  2.640058  63.104464  56.314825
C  4.606292  63.529057  56.155522
H  4.573532  0.025694  56.764470
C  10.057916  57.714505  46.184965
C  9.035937  58.764747  49.250902
H  9.712332  58.710790  48.587354
C  9.042361  59.847749  50.076964
H  9.731602  60.496523  50.019794
C  8.026163  59.980074  50.995524
H  7.997257  60.721345  51.587128
C  7.036302  58.997278  51.037277
C  7.139720  57.939328  50.177170
H  6.455618  57.284773  50.199652
C  5.914116  59.093631  52.019430
C  4.161143  58.130748  53.038840
C  4.800924  60.218385  53.612458
C  2.417805  56.987365  54.380709
H  2.402389  57.747265  54.946619
C  3.325446  56.977730  53.290641
C  3.389039  55.829208  52.536522
H  4.001841  55.762403  51.818374
C  2.557195  54.777039  52.832645
H  2.595094  53.970247  52.338678
C  1.661759  54.925421  53.868756
H  1.053454  54.214340  54.034482
C  64.164342  59.383973  56.006496
C  63.108960  55.383417  58.934328
H  63.798202  54.734643  58.871378
C  62.376039  55.418104  60.046236
H  62.519925  54.779608  60.734192
C  61.383608  56.411819  60.191407
H  60.869086  56.481835  60.984709
C  61.187692  57.280277  59.123179
C  62.000264  57.165938  58.006774
H  61.883999  57.792230  57.304043
C  60.173421  58.320884  59.185487
N  5.783077  63.232292  55.556852
N  9.336557  56.960386  46.693064
N  8.139859  57.767820  49.304859
N  5.817764  60.182414  52.731796
N  5.124026  58.031184  52.121564
N  3.951095  59.241371  53.799382
N  1.598167  55.995577  54.647284
N  62.929102  56.236458  57.865457
N  0.065520  58.263072  56.072659
N  60.179844  59.256145  58.233524
S  11.085034  58.816778  45.595930
S  64.004396  61.039309  55.935196
C  42.401524  18.100138  22.588880
H  41.598586  18.300551  22.116110
C  43.504438  18.896010  22.360846
C  44.683793  18.596675  23.007050
H  45.452686  19.148453  22.906201
C  44.718480  17.473205  23.806776
H  45.536192  17.189286  24.197324
C  43.569958  16.764693  24.038022
H  43.602718  16.033056  24.646969
C  38.118334  22.579245  14.067465
C  39.140313  21.529003  17.133402
H  38.463918  21.582960  16.469854
C  39.133889  20.446001  17.959464
H  38.444648  19.797227  17.902294
C  40.150087  20.313676  18.878024
H  40.178992  19.572405  19.469628
C  41.139948  21.296472  18.919777
C  41.036530  22.354422  18.059670
H  41.720633  23.008977  18.082152
C  42.262134  21.200119  19.901930
C  44.015107  22.163002  20.921339
C  43.375326  20.075365  21.494958
C  45.758445  23.306385  22.263209
H  45.773861  22.546485  22.829119
C  44.850804  23.316020  21.173141
C  44.787211  24.464542  20.419022
H  44.174409  24.531347  19.700874
C  45.619055  25.516711  20.715145
H  45.581156  26.323503  20.221178
C  46.514491  25.368329  21.751256
H  47.122796  26.079410  21.916982
C  48.246908  20.909777  23.888997
C  49.302290  24.910333  26.816828
H  48.613048  25.559106  26.753877
C  50.035211  24.875646  27.928736
H  49.891324  25.514142  28.616692
C  51.027642  23.881931  28.073907
H  51.542164  23.811914  28.867209
C  51.223558  23.013473  27.005679
C  50.410986  23.127812  25.889274
H  50.527251  22.501521  25.186543
C  52.237829  21.972866  27.067987
N  42.393173  17.061458  23.439352
N  38.839693  23.333364  14.575564
N  40.036391  22.525930  17.187359
N  42.358486  20.111336  20.614296
N  43.052224  22.262566  20.004064
N  44.225155  21.052379  21.681882
N  46.578083  24.298173  22.529784
N  49.482148  24.057292  25.747957
N  48.110730  22.030678  23.955159
N  52.231406  21.037605  26.116024
S  37.091216  21.476972  13.478430
S  48.406854  19.254441  23.817696
C  42.401524  50.217638  54.706380
H  41.598586  50.418052  54.233611
C  43.504438  51.013510  54.478346
C  44.683793  50.714175  55.124550
H  45.452686  51.265954  55.023701
C  44.718480  49.590705  55.924276
H  45.536192  49.306786  56.314825
C  43.569958  48.882193  56.155522
H  43.602718  48.150556  56.764470
C  38.118334  54.696745  46.184965
C  39.140313  53.646503  49.250902
H  38.463918  53.700460  48.587354
C  39.133889  52.563501  50.076964
H  38.444648  51.914727  50.019794
C  40.150087  52.431176  50.995524
H  40.178992  51.689904  51.587128
C  41.139948  53.413972  51.037277
C  41.036530  54.471922  50.177170
H  41.720633  55.126477  50.199652
C  42.262134  53.317619  52.019430
C  44.015107  54.280502  53.038840
C  43.375326  52.192865  53.612458
C  45.758445  55.423885  54.380709
H  45.773861  54.663985  54.946619
C  44.850804  55.433520  53.290641
C  44.787211  56.582042  52.536522
H  44.174409  56.648846  51.818374
C  45.619055  57.634211  52.832645
H  45.581156  58.441003  52.338678
C  46.514491  57.485829  53.868756
H  47.122796  58.196910  54.034482
C  48.246908  53.027277  56.006496
C  49.302290  57.027833  58.934328
H  48.613048  57.676606  58.871378
C  50.035211  56.993146  60.046236
H  49.891324  57.631642  60.734192
C  51.027642  55.999431  60.191407
H  51.542164  55.929415  60.984709
C  51.223558  55.130973  59.123179
C  50.410986  55.245312  58.006774
H  50.527251  54.619020  57.304043
C  52.237829  54.090366  59.185487
N  42.393173  49.178958  55.556852
N  38.839693  55.450864  46.693064
N  40.036391  54.643430  49.304859
N  42.358486  52.228836  52.731796
N  43.052224  54.380066  52.121564
N  44.225155  53.169879  53.799382
N  46.578083  56.415673  54.647284
N  49.482148  56.174792  57.865457
N  48.110730  54.148178  56.072659
N  52.231406  53.155105  58.233524
S  37.091216  53.594472  45.595930
S  48.406854  51.371941  55.935196
C  10.284023  18.100138  54.706380
H  9.481086  18.300551  54.233611
C  11.386938  18.896010  54.478346
C  12.566293  18.596675  55.124550
H  13.335186  19.148453  55.023701
C  12.600980  17.473205  55.924276
H  13.418691  17.189286  56.314825
C  11.452458  16.764693  56.155522
H  11.485218  16.033056  56.764470
C  6.000834  22.579245  46.184965
C  7.022813  21.529003  49.250902
H  6.346418  21.582960  48.587354
C  7.016389  20.446001  50.076964
H  6.327148  19.797227  50.019794
C  8.032587  20.313676  50.995524
H  8.061492  19.572405  51.587128
C  9.022448  21.296472  51.037277
C  8.919030  22.354422  50.177170
H  9.603132  23.008977  50.199652
C  10.144634  21.200119  52.019430
C  11.897607  22.163002  53.038840
C  11.257826  20.075365  53.612458
C  13.640945  23.306385  54.380709
H  13.656361  22.546485  54.946619
C  12.733304  23.316020  53.290641
C  12.669711  24.464542  52.536522
H  12.056909  24.531347  51.818374
C  13.501555  25.516711  52.832645
H  13.463656  26.323503  52.338678
C  14.396991  25.368329  53.868756
H  15.005296  26.079410  54.034482
C  16.129409  20.909777  56.006496
C  17.184790  24.910333  58.934328
H  16.495548  25.559106  58.871378
C  17.917711  24.875646  60.046236
H  17.773824  25.514142  60.734192
C  18.910142  23.881931  60.191407
H  19.424664  23.811914  60.984709
C  19.106058  23.013473  59.123179
C  18.293486  23.127812  58.006774
H  18.409751  22.501521  57.304043
C  20.120329  21.972866  59.185487
N  10.275673  17.061458  55.556852
N  6.722193  23.333364  46.693064
N  7.918891  22.525930  49.304859
N  10.240986  20.111336  52.731796
N  10.934724  22.262566  52.121564
N  12.107655  21.052379  53.799382
N  14.460583  24.298173  54.647284
N  17.364648  24.057292  57.865457
N  15.993230  22.030678  56.072659
N  20.113906  21.037605  58.233524
S  4.973716  21.476972  45.595930
S  16.289354  19.254441  55.935196
C  10.284023  50.217638  22.588880
H  9.481086  50.418052  22.116110
C  11.386938  51.013510  22.360846
C  12.566293  50.714175  23.007050
H  13.335186  51.265954  22.906201
C  12.600980  49.590705  23.806776
H  13.418691  49.306786  24.197324
C  11.452458  48.882193  24.038022
H  11.485218  48.150556  24.646969
C  6.000834  54.696745  14.067465
C  7.022813  53.646503  17.133402
H  6.346418  53.700460  16.469854
C  7.016389  52.563501  17.959464
H  6.327148  51.914727  17.902294
C  8.032587  52.431176  18.878024
H  8.061492  51.689904  19.469628
C  9.022448  53.413972  18.919777
C  8.919030  54.471922  18.059670
H  9.603132  55.126477  18.082152
C  10.144634  53.317619  19.901930
C  11.897607  54.280502  20.921339
C  11.257826  52.192865  21.494958
C  13.640945  55.423885  22.263209
H  13.656361  54.663985  22.829119
C  12.733304  55.433520  21.173141
C  12.669711  56.582042  20.419022
H  12.056909  56.648846  19.700874
C  13.501555  57.634211  20.715145
H  13.463656  58.441003  20.221178
C  14.396991  57.485829  21.751256
H  15.005296  58.196910  21.916982
C  16.129409  53.027277  23.888997
C  17.184790  57.027833  26.816828
H  16.495548  57.676606  26.753877
C  17.917711  56.993146  27.928736
H  17.773824  57.631642  28.616692
C  18.910142  55.999431  28.073907
H  19.424664  55.929415  28.867209
C  19.106058  55.130973  27.005679
C  18.293486  55.245312  25.889274
H  18.409751  54.619020  25.186543
C  20.120329  54.090366  27.067987
N  10.275673  49.178958  23.439352
N  6.722193  55.450864  14.575564
N  7.918891  54.643430  17.187359
N  10.240986  52.228836  20.614296
N  10.934724  54.380066  20.004064
N  12.107655  53.169879  21.681882
N  14.460583  56.415673  22.529784
N  17.364648  56.174792  25.747957
N  15.993230  54.148178  23.955159
N  20.113906  53.155105  26.116024
S  4.973716  53.594472  13.478430
S  16.289354  51.371941  23.817696
C  18.100138  22.588880  42.401524
H  18.300551  22.116110  41.598586
C  18.896010  22.360846  43.504438
C  18.596675  23.007050  44.683793
H  19.148453  22.906201  45.452686
C  17.473205  23.806776  44.718480
H  17.189286  24.197324  45.536192
C  16.764693  24.038022  43.569958
H  16.033056  24.646969  43.602718
C  22.579245  14.067465  38.118334
C  21.529003  17.133402  39.140313
H  21.582960  16.469854  38.463918
C  20.446001  17.959464  39.133889
H  19.797227  17.902294  38.444648
C  20.313676  18.878024  40.150087
H  19.572405  19.469628  40.178992
C  21.296472  18.919777  41.139948
C  22.354422  18.059670  41.036530
H  23.008977  18.082152  41.720633
C  21.200119  19.901930  42.262134
C  22.163002  20.921339  44.015107
C  20.075365  21.494958  43.375326
C  23.306385  22.263209  45.758445
H  22.546485  22.829119  45.773861
C  23.316020  21.173141  44.850804
C  24.464542  20.419022  44.787211
H  24.531347  19.700874  44.174409
C  25.516711  20.715145  45.619055
H  26.323503  20.221178  45.581156
C  25.368329  21.751256  46.514491
H  26.079410  21.916982  47.122796
C  20.909777  23.888997  48.246908
C  24.910333  26.816828  49.302290
H  25.559106  26.753877  48.613048
C  24.875646  27.928736  50.035211
H  25.514142  28.616692  49.891324
C  23.881931  28.073907  51.027642
H  23.811914  28.867209  51.542164
C  23.013473  27.005679  51.223558
C  23.127812  25.889274  50.410986
H  22.501521  25.186543  50.527251
C  21.972866  27.067987  52.237829
N  17.061458  23.439352  42.393173
N  23.333364  14.575564  38.839693
N  22.525930  17.187359  40.036391
N  20.111336  20.614296  42.358486
N  22.262566  20.004064  43.052224
N  21.052379  21.681882  44.225155
N  24.298173  22.529784  46.578083
N  24.057292  25.747957  49.482148
N  22.030678  23.955159  48.110730
N  21.037605  26.116024  52.231406
S  21.476972  13.478430  37.091216
S  19.254441  23.817696  48.406854
C  18.100138  54.706380  10.284023
H  18.300551  54.233611  9.481086
C  18.896010  54.478346  11.386938
C  18.596675  55.124550  12.566293
H  19.148453  55.023701  13.335186
C  17.473205  55.924276  12.600980
H  17.189286  56.314825  13.418691
C  16.764693  56.155522  11.452458
H  16.033056  56.764470  11.485218
C  22.579245  46.184965  6.000834
C  21.529003  49.250902  7.022813
H  21.582960  48.587354  6.346418
C  20.446001  50.076964  7.016389
H  19.797227  50.019794  6.327148
C  20.313676  50.995524  8.032587
H  19.572405  51.587128  8.061492
C  21.296472  51.037277  9.022448
C  22.354422  50.177170  8.919030
H  23.008977  50.199652  9.603132
C  21.200119  52.019430  10.144634
C  22.163002  53.038840  11.897607
C  20.075365  53.612458  11.257826
C  23.306385  54.380709  13.640945
H  22.546485  54.946619  13.656361
C  23.316020  53.290641  12.733304
C  24.464542  52.536522  12.669711
H  24.531347  51.818374  12.056909
C  25.516711  52.832645  13.501555
H  26.323503  52.338678  13.463656
C  25.368329  53.868756  14.396991
H  26.079410  54.034482  15.005296
C  20.909777  56.006496  16.129409
C  24.910333  58.934328  17.184790
H  25.559106  58.871378  16.495548
C  24.875646  60.046236  17.917711
H  25.514142  60.734192  17.773824
C  23.881931  60.191407  18.910142
H  23.811914  60.984709  19.424664
C  23.013473  59.123179  19.106058
C  23.127812  58.006774  18.293486
H  22.501521  57.304043  18.409751
C  21.972866  59.185487  20.120329
N  17.061458  55.556852  10.275673
N  23.333364  46.693064  6.722193
N  22.525930  49.304859  7.918891
N  20.111336  52.731796  10.240986
N  22.262566  52.121564  10.934724
N  21.052379  53.799382  12.107655
N  24.298173  54.647284  14.460583
N  24.057292  57.865457  17.364648
N  22.030678  56.072659  15.993230
N  21.037605  58.233524  20.113906
S  21.476972  45.595930  4.973716
S  19.254441  55.935196  16.289354
C  50.217638  22.588880  10.284023
H  50.418052  22.116110  9.481086
C  51.013510  22.360846  11.386938
C  50.714175  23.007050  12.566293
H  51.265954  22.906201  13.335186
C  49.590705  23.806776  12.600980
H  49.306786  24.197324  13.418691
C  48.882193  24.038022  11.452458
H  48.150556  24.646969  11.485218
C  54.696745  14.067465  6.000834
C  53.646503  17.133402  7.022813
H  53.700460  16.469854  6.346418
C  52.563501  17.959464  7.016389
H  51.914727  17.902294  6.327148
C  52.431176  18.878024  8.032587
H  51.689904  19.469628  8.061492
C  53.413972  18.919777  9.022448
C  54.471922  18.059670  8.919030
H  55.126477  18.082152  9.603132
C  53.317619  19.901930  10.144634
C  54.280502  20.921339  11.897607
C  52.192865  21.494958  11.257826
C  55.423885  22.263209  13.640945
H  54.663985  22.829119  13.656361
C  55.433520  21.173141  12.733304
C  56.582042  20.419022  12.669711
H  56.648846  19.700874  12.056909
C  57.634211  20.715145  13.501555
H  58.441003  20.221178  13.463656
C  57.485829  21.751256  14.396991
H  58.196910  21.916982  15.005296
C  53.027277  23.888997  16.129409
C  57.027833  26.816828  17.184790
H  57.676606  26.753877  16.495548
C  56.993146  27.928736  17.917711
H  57.631642  28.616692  17.773824
C  55.999431  28.073907  18.910142
H  55.929415  28.867209  19.424664
C  55.130973  27.005679  19.106058
C  55.245312  25.889274  18.293486
H  54.619020  25.186543  18.409751
C  54.090366  27.067987  20.120329
N  49.178958  23.439352  10.275673
N  55.450864  14.575564  6.722193
N  54.643430  17.187359  7.918891
N  52.228836  20.614296  10.240986
N  54.380066  20.004064  10.934724
N  53.169879  21.681882  12.107655
N  56.415673  22.529784  14.460583
N  56.174792  25.747957  17.364648
N  54.148178  23.955159  15.993230
N  53.155105  26.116024  20.113906
S  53.594472  13.478430  4.973716
S  51.371941  23.817696  16.289354
C  50.217638  54.706380  42.401524
H  50.418052  54.233611  41.598586
C  51.013510  54.478346  43.504438
C  50.714175  55.124550  44.683793
H  51.265954  55.023701  45.452686
C  49.590705  55.924276  44.718480
H  49.306786  56.314825  45.536192
C  48.882193  56.155522  43.569958
H  48.150556  56.764470  43.602718
C  54.696745  46.184965  38.118334
C  53.646503  49.250902  39.140313
H  53.700460  48.587354  38.463918
C  52.563501  50.076964  39.133889
H  51.914727  50.019794  38.444648
C  52.431176  50.995524  40.150087
H  51.689904  51.587128  40.178992
C  53.413972  51.037277  41.139948
C  54.471922  50.177170  41.036530
H  55.126477  50.199652  41.720633
C  53.317619  52.019430  42.262134
C  54.280502  53.038840  44.015107
C  52.192865  53.612458  43.375326
C  55.423885  54.380709  45.758445
H  54.663985  54.946619  45.773861
C  55.433520  53.290641  44.850804
C  56.582042  52.536522  44.787211
H  56.648846  51.818374  44.174409
C  57.634211  52.832645  45.619055
H  58.441003  52.338678  45.581156
C  57.485829  53.868756  46.514491
H  58.196910  54.034482  47.122796
C  53.027277  56.006496  48.246908
C  57.027833  58.934328  49.302290
H  57.676606  58.871378  48.613048
C  56.993146  60.046236  50.035211
H  57.631642  60.734192  49.891324
C  55.999431  60.191407  51.027642
H  55.929415  60.984709  51.542164
C  55.130973  59.123179  51.223558
C  55.245312  58.006774  50.410986
H  54.619020  57.304043  50.527251
C  54.090366  59.185487  52.237829
N  49.178958  55.556852  42.393173
N  55.450864  46.693064  38.839693
N  54.643430  49.304859  40.036391
N  52.228836  52.731796  42.358486
N  54.380066  52.121564  43.052224
N  53.169879  53.799382  44.225155
N  56.415673  54.647284  46.578083
N  56.174792  57.865457  49.482148
N  54.148178  56.072659  48.110730
N  53.155105  58.233524  52.231406
S  53.594472  45.595930  37.091216
S  51.371941  55.935196  48.406854
C  30.076112  54.706380  37.892226
H  29.875699  54.233611  38.695164
C  29.280240  54.478346  36.789312
C  29.579575  55.124550  35.609957
H  29.027797  55.023701  34.841064
C  30.703045  55.924276  35.575270
H  30.986964  56.314825  34.757559
C  31.411557  56.155522  36.723792
H  32.143194  56.764470  36.691032
C  25.597005  46.184965  42.175416
C  26.647247  49.250902  41.153437
H  26.593290  48.587354  41.829832
C  27.730249  50.076964  41.159861
H  28.379023  50.019794  41.849103
C  27.862574  50.995524  40.143663
H  28.603845  51.587128  40.114758
C  26.879778  51.037277  39.153802
C  25.821828  50.177170  39.257220
H  25.167273  50.199652  38.573118
C  26.976131  52.019430  38.031616
C  26.013248  53.038840  36.278643
C  28.100885  53.612458  36.918424
C  24.869865  54.380709  34.535305
H  25.629765  54.946619  34.519889
C  24.860230  53.290641  35.442946
C  23.711708  52.536522  35.506539
H  23.644903  51.818374  36.119340
C  22.659539  52.832645  34.674695
H  21.852747  52.338678  34.712594
C  22.807921  53.868756  33.779259
H  22.096840  54.034482  33.170954
C  27.266473  56.006496  32.046841
C  23.265917  58.934328  30.991460
H  22.617144  58.871378  31.680702
C  23.300604  60.046236  30.258539
H  22.662108  60.734192  30.402425
C  24.294319  60.191407  29.266108
H  24.364336  60.984709  28.751586
C  25.162777  59.123179  29.070192
C  25.048438  58.006774  29.882764
H  25.674729  57.304043  29.766499
C  26.203384  59.185487  28.055921
N  31.114792  55.556852  37.900577
N  24.842886  46.693064  41.454057
N  25.650320  49.304859  40.257359
N  28.064914  52.731796  37.935264
N  25.913684  52.121564  37.241526
N  27.123871  53.799382  36.068595
N  23.878077  54.647284  33.715667
N  24.118958  57.865457  30.811602
N  26.145572  56.072659  32.183020
N  27.138645  58.233524  28.062344
S  26.699278  45.595930  43.202534
S  28.921809  55.935196  31.886896
C  30.076112  22.588880  5.774726
H  29.875699  22.116110  6.577664
C  29.280240  22.360846  4.671812
C  29.579575  23.007050  3.492457
H  29.027797  22.906201  2.723564
C  30.703045  23.806776  3.457770
H  30.986964  24.197324  2.640058
C  31.411557  24.038022  4.606292
H  32.143194  24.646969  4.573532
C  25.597005  14.067465  10.057916
C  26.647247  17.133402  9.035937
H  26.593290  16.469854  9.712332
C  27.730249  17.959464  9.042361
H  28.379023  17.902294  9.731602
C  27.862574  18.878024  8.026163
H  28.603845  19.469628  7.997257
C  26.879778  18.919777  7.036302
C  25.821828  18.059670  7.139720
H  25.167273  18.082152  6.455618
C  26.976131  19.901930  5.914116
C  26.013248  20.921339  4.161143
C  28.100885  21.494958  4.800924
C  24.869865  22.263209  2.417805
H  25.629765  22.829119  2.402389
C  24.860230  21.173141  3.325446
C  23.711708  20.419022  3.389039
H  23.644903  19.700874  4.001841
C  22.659539  20.715145  2.557195
H  21.852747  20.221178  2.595094
C  22.807921  21.751256  1.661759
H  22.096840  21.916982  1.053454
C  27.266473  23.888997  64.164342
C  23.265917  26.816828  63.108960
H  22.617144  26.753877  63.798202
C  23.300604  27.928736  62.376039
H  22.662108  28.616692  62.519925
C  24.294319  28.073907  61.383608
H  24.364336  28.867209  60.869086
C  25.162777  27.005679  61.187692
C  25.048438  25.889274  62.000264
H  25.674729  25.186543  61.883999
C  26.203384  27.067987  60.173421
N  31.114792  23.439352  5.783077
N  24.842886  14.575564  9.336557
N  25.650320  17.187359  8.139859
N  28.064914  20.614296  5.817764
N  25.913684  20.004064  5.124026
N  27.123871  21.681882  3.951095
N  23.878077  22.529784  1.598167
N  24.118958  25.747957  62.929102
N  26.145572  23.955159  0.065520
N  27.138645  26.116024  60.179844
S  26.699278  13.478430  11.085034
S  28.921809  23.817696  64.004396
C  62.193612  54.706380  5.774726
H  61.993198  54.233611  6.577664
C  61.397740  54.478346  4.671812
C  61.697075  55.124550  3.492457
H  61.145297  55.023701  2.723564
C  62.820545  55.924276  3.457770
H  63.104464  56.314825  2.640058
C  63.529057  56.155522  4.606292
H  0.025694  56.764470  4.573532
C  57.714505  46.184965  10.057916
C  58.764747  49.250902  9.035937
H  58.710790  48.587354  9.712332
C  59.847749  50.076964  9.042361
H  60.496523  50.019794  9.731602
C  59.980074  50.995524  8.026163
H  60.721345  51.587128  7.997257
C  58.997278  51.037277  7.036302
C  57.939328  50.177170  7.139720
H  57.284773  50.199652  6.455618
C  59.093631  52.019430  5.914116
C  58.130748  53.038840  4.161143
C  60.218385  53.612458  4.800924
C  56.987365  54.380709  2.417805
H  57.747265  54.946619  2.402389
C  56.977730  53.290641  3.325446
C  55.829208  52.536522  3.389039
H  55.762403  51.818374  4.001841
C  54.777039  52.832645  2.557195
H  53.970247  52.338678  2.595094
C  54.925421  53.868756  1.661759
H  54.214340  54.034482  1.053454
C  59.383973  56.006496  64.164342
C  55.383417  58.934328  63.108960
H  54.734643  58.871378  63.798202
C  55.418104  60.046236  62.376039
H  54.779608  60.734192  62.519925
C  56.411819  60.191407  61.383608
H  56.481835  60.984709  60.869086
C  57.280277  59.123179  61.187692
C  57.165938  58.006774  62.000264
H  57.792230  57.304043  61.883999
C  58.320884  59.185487  60.173421
N  63.232292  55.556852  5.783077
N  56.960386  46.693064  9.336557
N  57.767820  49.304859  8.139859
N  60.182414  52.731796  5.817764
N  58.031184  52.121564  5.124026
N  59.241371  53.799382  3.951095
N  55.995577  54.647284  1.598167
N  56.236458  57.865457  62.929102
N  58.263072  56.072659  0.065520
N  59.256145  58.233524  60.179844
S  58.816778  45.595930  11.085034
S  61.039309  55.935196  64.004396
C  62.193612  22.588880  37.892226
H  61.993198  22.116110  38.695164
C  61.397740  22.360846  36.789312
C  61.697075  23.007050  35.609957
H  61.145297  22.906201  34.841064
C  62.820545  23.806776  35.575270
H  63.104464  24.197324  34.757559
C  63.529057  24.038022  36.723792
H  0.025694  24.646969  36.691032
C  57.714505  14.067465  42.175416
C  58.764747  17.133402  41.153437
H  58.710790  16.469854  41.829832
C  59.847749  17.959464  41.159861
H  60.496523  17.902294  41.849103
C  59.980074  18.878024  40.143663
H  60.721345  19.469628  40.114758
C  58.997278  18.919777  39.153802
C  57.939328  18.059670  39.257220
H  57.284773  18.082152  38.573118
C  59.093631  19.901930  38.031616
C  58.130748  20.921339  36.278643
C  60.218385  21.494958  36.918424
C  56.987365  22.263209  34.535305
H  57.747265  22.829119  34.519889
C  56.977730  21.173141  35.442946
C  55.829208  20.419022  35.506539
H  55.762403  19.700874  36.119340
C  54.777039  20.715145  34.674695
H  53.970247  20.221178  34.712594
C  54.925421  21.751256  33.779259
H  54.214340  21.916982  33.170954
C  59.383973  23.888997  32.046841
C  55.383417  26.816828  30.991460
H  54.734643  26.753877  31.680702
C  55.418104  27.928736  30.258539
H  54.779608  28.616692  30.402425
C  56.411819  28.073907  29.266108
H  56.481835  28.867209  28.751586
C  57.280277  27.005679  29.070192
C  57.165938  25.889274  29.882764
H  57.792230  25.186543  29.766499
C  58.320884  27.067987  28.055921
N  63.232292  23.439352  37.900577
N  56.960386  14.575564  41.454057
N  57.767820  17.187359  40.257359
N  60.182414  20.614296  37.935264
N  58.031184  20.004064  37.241526
N  59.241371  21.681882  36.068595
N  55.995577  22.529784  33.715667
N  56.236458  25.747957  30.811602
N  58.263072  23.955159  32.183020
N  59.256145  26.116024  28.062344
S  58.816778  13.478430  43.202534
S  61.039309  23.817696  31.886896
C  62.193612  25.587370  10.284023
H  61.993198  26.060140  9.481086
C  61.397740  25.815404  11.386938
C  61.697075  25.169200  12.566293
H  61.145297  25.270049  13.335186
C  62.820545  24.369474  12.600980
H  63.104464  23.978926  13.418691
C  63.529057  24.138228  11.452458
H  0.025694  23.529281  11.485218
C  57.714505  34.108785  6.000834
C  58.764747  31.042848  7.022813
H  58.710790  31.706396  6.346418
C  59.847749  30.216786  7.016389
H  60.496523  30.273955  6.327148
C  59.980074  29.298226  8.032587
H  60.721345  28.706622  8.061492
C  58.997278  29.256473  9.022448
C  57.939328  30.116580  8.919030
H  57.284773  30.094098  9.603132
C  59.093631  28.274320  10.144634
C  58.130748  27.254911  11.897607
C  60.218385  26.681292  11.257826
C  56.987365  25.913041  13.640945
H  57.747265  25.347131  13.656361
C  56.977730  27.003109  12.733304
C  55.829208  27.757228  12.669711
H  55.762403  28.475376  12.056909
C  54.777039  27.461105  13.501555
H  53.970247  27.955072  13.463656
C  54.925421  26.424994  14.396991
H  54.214340  26.259268  15.005296
C  59.383973  24.287253  16.129409
C  55.383417  21.359422  17.184790
H  54.734643  21.422373  16.495548
C  55.418104  20.247514  17.917711
H  54.779608  19.559558  17.773824
C  56.411819  20.102343  18.910142
H  56.481835  19.309041  19.424664
C  57.280277  21.170571  19.106058
C  57.165938  22.286976  18.293486
H  57.792230  22.989707  18.409751
C  58.320884  21.108263  20.120329
N  63.232292  24.736898  10.275673
N  56.960386  33.600686  6.722193
N  57.767820  30.988891  7.918891
N  60.182414  27.561954  10.240986
N  58.031184  28.172186  10.934724
N  59.241371  26.494368  12.107655
N  55.995577  25.646466  14.460583
N  56.236458  22.428293  17.364648
N  58.263072  24.221091  15.993230
N  59.256145  22.060226  20.113906
S  58.816778  34.697820  4.973716
S  61.039309  24.358554  16.289354
C  62.193612  57.704870  42.401524
H  61.993198  58.177639  41.598586
C  61.397740  57.932904  43.504438
C  61.697075  57.286700  44.683793
H  61.145297  57.387549  45.452686
C  62.820545  56.486974  44.718480
H  63.104464  56.096425  45.536192
C  63.529057  56.255728  43.569958
H  0.025694  55.646780  43.602718
C  57.714505  1.991285  38.118334
C  58.764747  63.160348  39.140313
H  58.710790  63.823896  38.463918
C  59.847749  62.334286  39.133889
H  60.496523  62.391455  38.444648
C  59.980074  61.415726  40.150087
H  60.721345  60.824121  40.178992
C  58.997278  61.373973  41.139948
C  57.939328  62.234080  41.036530
H  57.284773  62.211598  41.720633
C  59.093631  60.391820  42.262134
C  58.130748  59.372411  44.015107
C  60.218385  58.798792  43.375326
C  56.987365  58.030541  45.758445
H  57.747265  57.464631  45.773861
C  56.977730  59.120609  44.850804
C  55.829208  59.874728  44.787211
H  55.762403  60.592875  44.174409
C  54.777039  59.578605  45.619055
H  53.970247  60.072572  45.581156
C  54.925421  58.542494  46.514491
H  54.214340  58.376768  47.122796
C  59.383973  56.404753  48.246908
C  55.383417  53.476922  49.302290
H  54.734643  53.539873  48.613048
C  55.418104  52.365014  50.035211
H  54.779608  51.677057  49.891324
C  56.411819  52.219843  51.027642
H  56.481835  51.426541  51.542164
C  57.280277  53.288071  51.223558
C  57.165938  54.404476  50.410986
H  57.792230  55.107206  50.527251
C  58.320884  53.225763  52.237829
N  63.232292  56.854399  42.393173
N  56.960386  1.483186  38.839693
N  57.767820  63.106391  40.036391
N  60.182414  59.679454  42.358486
N  58.031184  60.289686  43.052224
N  59.241371  58.611868  44.225155
N  55.995577  57.763966  46.578083
N  56.236458  54.545793  49.482148
N  58.263072  56.338591  48.110730
N  59.256145  54.177726  52.231406
S  58.816778  2.580320  37.091216
S  61.039309  56.476054  48.406854
C  30.076112  25.587370  42.401524
H  29.875699  26.060140  41.598586
C  29.280240  25.815404  43.504438
C  29.579575  25.169200  44.683793
H  29.027797  25.270049  45.452686
C  30.703045  24.369474  44.718480
H  30.986964  23.978926  45.536192
C  31.411557  24.138228  43.569958
H  32.143194  23.529281  43.602718
C  25.597005  34.108785  38.118334
C  26.647247  31.042848  39.140313
H  26.593290  31.706396  38.463918
C  27.730249  30.216786  39.133889
H  28.379023  30.273955  38.444648
C  27.862574  29.298226  40.150087
H  28.603845  28.706622  40.178992
C  26.879778  29.256473  41.139948
C  25.821828  30.116580  41.036530
H  25.167273  30.094098  41.720633
C  26.976131  28.274320  42.262134
C  26.013248  27.254911  44.015107
C  28.100885  26.681292  43.375326
C  24.869865  25.913041  45.758445
H  25.629765  25.347131  45.773861
C  24.860230  27.003109  44.850804
C  23.711708  27.757228  44.787211
H  23.644903  28.475376  44.174409
C  22.659539  27.461105  45.619055
H  21.852747  27.955072  45.581156
C  22.807921  26.424994  46.514491
H  22.096840  26.259268  47.122796
C  27.266473  24.287253  48.246908
C  23.265917  21.359422  49.302290
H  22.617144  21.422373  48.613048
C  23.300604  20.247514  50.035211
H  22.662108  19.559558  49.891324
C  24.294319  20.102343  51.027642
H  24.364336  19.309041  51.542164
C  25.162777  21.170571  51.223558
C  25.048438  22.286976  50.410986
H  25.674729  22.989707  50.527251
C  26.203384  21.108263  52.237829
N  31.114792  24.736898  42.393173
N  24.842886  33.600686  38.839693
N  25.650320  30.988891  40.036391
N  28.064914  27.561954  42.358486
N  25.913684  28.172186  43.052224
N  27.123871  26.494368  44.225155
N  23.878077  25.646466  46.578083
N  24.118958  22.428293  49.482148
N  26.145572  24.221091  48.110730
N  27.138645  22.060226  52.231406
S  26.699278  34.697820  37.091216
S  28.921809  24.358554  48.406854
C  30.076112  57.704870  10.284023
H  29.875699  58.177639  9.481086
C  29.280240  57.932904  11.386938
C  29.579575  57.286700  12.566293
H  29.027797  57.387549  13.335186
C  30.703045  56.486974  12.600980
H  30.986964  56.096425  13.418691
C  31.411557  56.255728  11.452458
H  32.143194  55.646780  11.485218
C  25.597005  1.991285  6.000834
C  26.647247  63.160348  7.022813
H  26.593290  63.823896  6.346418
C  27.730249  62.334286  7.016389
H  28.379023  62.391455  6.327148
C  27.862574  61.415726  8.032587
H  28.603845  60.824121  8.061492
C  26.879778  61.373973  9.022448
C  25.821828  62.234080  8.919030
H  25.167273  62.211598  9.603132
C  26.976131  60.391820  10.144634
C  26.013248  59.372411  11.897607
C  28.100885  58.798792  11.257826
C  24.869865  58.030541  13.640945
H  25.629765  57.464631  13.656361
C  24.860230  59.120609  12.733304
C  23.711708  59.874728  12.669711
H  23.644903  60.592875  12.056909
C  22.659539  59.578605  13.501555
H  21.852747  60.072572  13.463656
C  22.807921  58.542494  14.396991
H  22.096840  58.376768  15.005296
C  27.266473  56.404753  16.129409
C  23.265917  53.476922  17.184790
H  22.617144  53.539873  16.495548
C  23.300604  52.365014  17.917711
H  22.662108  51.677057  17.773824
C  24.294319  52.219843  18.910142
H  24.364336  51.426541  19.424664
C  25.162777  53.288071  19.106058
C  25.048438  54.404476  18.293486
H  25.674729  55.107206  18.409751
C  26.203384  53.225763  20.120329
N  31.114792  56.854399  10.275673
N  24.842886  1.483186  6.722193
N  25.650320  63.106391  7.918891
N  28.064914  59.679454  10.240986
N  25.913684  60.289686  10.934724
N  27.123871  58.611868  12.107655
N  23.878077  57.763966  14.460583
N  24.118958  54.545793  17.364648
N  26.145572  56.338591  15.993230
N  27.138645  54.177726  20.113906
S  26.699278  2.580320  4.973716
S  28.921809  56.476054  16.289354
C  50.217638  57.704870  5.774726
H  50.418052  58.177639  6.577664
C  51.013510  57.932904  4.671812
C  50.714175  57.286700  3.492457
H  51.265954  57.387549  2.723564
C  49.590705  56.486974  3.457770
H  49.306786  56.096425  2.640058
C  48.882193  56.255728  4.606292
H  48.150556  55.646780  4.573532
C  54.696745  1.991285  10.057916
C  53.646503  63.160348  9.035937
H  53.700460  63.823896  9.712332
C  52.563501  62.334286  9.042361
H  51.914727  62.391455  9.731602
C  52.431176  61.415726  8.026163
H  51.689904  60.824121  7.997257
C  53.413972  61.373973  7.036302
C  54.471922  62.234080  7.139720
H  55.126477  62.211598  6.455618
C  53.317619  60.391820  5.914116
C  54.280502  59.372411  4.161143
C  52.192865  58.798792  4.800924
C  55.423885  58.030541  2.417805
H  54.663985  57.464631  2.402389
C  55.433520  59.120609  3.325446
C  56.582042  59.874728  3.389039
H  56.648846  60.592875  4.001841
C  57.634211  59.578605  2.557195
H  58.441003  60.072572  2.595094
C  57.485829  58.542494  1.661759
H  58.196910  58.376768  1.053454
C  53.027277  56.404753  64.164342
C  57.027833  53.476922  63.108960
H  57.676606  53.539873  63.798202
C  56.993146  52.365014  62.376039
H  57.631642  51.677057  62.519925
C  55.999431  52.219843  61.383608
H  55.929415  51.426541  60.869086
C  55.130973  53.288071  61.187692
C  55.245312  54.404476  62.000264
H  54.619020  55.107206  61.883999
C  54.090366  53.225763  60.173421
N  49.178958  56.854399  5.783077
N  55.450864  1.483186  9.336557
N  54.643430  63.106391  8.139859
N  52.228836  59.679454  5.817764
N  54.380066  60.289686  5.124026
N  53.169879  58.611868  3.951095
N  56.415673  57.763966  1.598167
N  56.174792  54.545793  62.929102
N  54.148178  56.338591  0.065520
N  53.155105  54.177726  60.179844
S  53.594472  2.580320  11.085034
S  51.371941  56.476054  64.004396
C  50.217638  25.587370  37.892226
H  50.418052  26.060140  38.695164
C  51.013510  25.815404  36.789312
C  50.714175  25.169200  35.609957
H  51.265954  25.270049  34.841064
C  49.590705  24.369474  35.575270
H  49.306786  23.978926  34.757559
C  48.882193  24.138228  36.723792
H  48.150556  23.529281  36.691032
C  54.696745  34.108785  42.175416
C  53.646503  31.042848  41.153437
H  53.700460  31.706396  41.829832
C  52.563501  30.216786  41.159861
H  51.914727  30.273955  41.849103
C  52.431176  29.298226  40.143663
H  51.689904  28.706622  40.114758
C  53.413972  29.256473  39.153802
C  54.471922  30.116580  39.257220
H  55.126477  30.094098  38.573118
C  53.317619  28.274320  38.031616
C  54.280502  27.254911  36.278643
C  52.192865  26.681292  36.918424
C  55.423885  25.913041  34.535305
H  54.663985  25.347131  34.519889
C  55.433520  27.003109  35.442946
C  56.582042  27.757228  35.506539
H  56.648846  28.475376  36.119340
C  57.634211  27.461105  34.674695
H  58.441003  27.955072  34.712594
C  57.485829  26.424994  33.779259
H  58.196910  26.259268  33.170954
C  53.027277  24.287253  32.046841
C  57.027833  21.359422  30.991460
H  57.676606  21.422373  31.680702
C  56.993146  20.247514  30.258539
H  57.631642  19.559558  30.402425
C  55.999431  20.102343  29.266108
H  55.929415  19.309041  28.751586
C  55.130973  21.170571  29.070192
C  55.245312  22.286976  29.882764
H  54.619020  22.989707  29.766499
C  54.090366  21.108263  28.055921
N  49.178958  24.736898  37.900577
N  55.450864  33.600686  41.454057
N  54.643430  30.988891  40.257359
N  52.228836  27.561954  37.935264
N  54.380066  28.172186  37.241526
N  53.169879  26.494368  36.068595
N  56.415673  25.646466  33.715667
N  56.174792  22.428293  30.811602
N  54.148178  24.221091  32.183020
N  53.155105  22.060226  28.062344
S  53.594472  34.697820  43.202534
S  51.371941  24.358554  31.886896
C  18.100138  57.704870  37.892226
H  18.300551  58.177639  38.695164
C  18.896010  57.932904  36.789312
C  18.596675  57.286700  35.609957
H  19.148453  57.387549  34.841064
C  17.473205  56.486974  35.575270
H  17.189286  56.096425  34.757559
C  16.764693  56.255728  36.723792
H  16.033056  55.646780  36.691032
C  22.579245  1.991285  42.175416
C  21.529003  63.160348  41.153437
H  21.582960  63.823896  41.829832
C  20.446001  62.334286  41.159861
H  19.797227  62.391455  41.849103
C  20.313676  61.415726  40.143663
H  19.572405  60.824121  40.114758
C  21.296472  61.373973  39.153802
C  22.354422  62.234080  39.257220
H  23.008977  62.211598  38.573118
C  21.200119  60.391820  38.031616
C  22.163002  59.372411  36.278643
C  20.075365  58.798792  36.918424
C  23.306385  58.030541  34.535305
H  22.546485  57.464631  34.519889
C  23.316020  59.120609  35.442946
C  24.464542  59.874728  35.506539
H  24.531347  60.592875  36.119340
C  25.516711  59.578605  34.674695
H  26.323503  60.072572  34.712594
C  25.368329  58.542494  33.779259
H  26.079410  58.376768  33.170954
C  20.909777  56.404753  32.046841
C  24.910333  53.476922  30.991460
H  25.559106  53.539873  31.680702
C  24.875646  52.365014  30.258539
H  25.514142  51.677057  30.402425
C  23.881931  52.219843  29.266108
H  23.811914  51.426541  28.751586
C  23.013473  53.288071  29.070192
C  23.127812  54.404476  29.882764
H  22.501521  55.107206  29.766499
C  21.972866  53.225763  28.055921
N  17.061458  56.854399  37.900577
N  23.333364  1.483186  41.454057
N  22.525930  63.106391  40.257359
N  20.111336  59.679454  37.935264
N  22.262566  60.289686  37.241526
N  21.052379  58.611868  36.068595
N  24.298173  57.763966  33.715667
N  24.057292  54.545793  30.811602
N  22.030678  56.338591  32.183020
N  21.037605  54.177726  28.062344
S  21.476972  2.580320  43.202534
S  19.254441  56.476054  31.886896
C  18.100138  25.587370  5.774726
H  18.300551  26.060140  6.577664
C  18.896010  25.815404  4.671812
C  18.596675  25.169200  3.492457
H  19.148453  25.270049  2.723564
C  17.473205  24.369474  3.457770
H  17.189286  23.978926  2.640058
C  16.764693  24.138228  4.606292
H  16.033056  23.529281  4.573532
C  22.579245  34.108785  10.057916
C  21.529003  31.042848  9.035937
H  21.582960  31.706396  9.712332
C  20.446001  30.216786  9.042361
H  19.797227  30.273955  9.731602
C  20.313676  29.298226  8.026163
H  19.572405  28.706622  7.997257
C  21.296472  29.256473  7.036302
C  22.354422  30.116580  7.139720
H  23.008977  30.094098  6.455618
C  21.200119  28.274320  5.914116
C  22.163002  27.254911  4.161143
C  20.075365  26.681292  4.800924
C  23.306385  25.913041  2.417805
H  22.546485  25.347131  2.402389
C  23.316020  27.003109  3.325446
C  24.464542  27.757228  3.389039
H  24.531347  28.475376  4.001841
C  25.516711  27.461105  2.557195
H  26.323503  27.955072  2.595094
C  25.368329  26.424994  1.661759
H  26.079410  26.259268  1.053454
C  20.909777  24.287253  64.164342
C  24.910333  21.359422  63.108960
H  25.559106  21.422373  63.798202
C  24.875646  20.247514  62.376039
H  25.514142  19.559558  62.519925
C  23.881931  20.102343  61.383608
H  23.811914  19.309041  60.869086
C  23.013473  21.170571  61.187692
C  23.127812  22.286976  62.000264
H  22.501521  22.989707  61.883999
C  21.972866  21.108263  60.173421
N  17.061458  24.736898  5.783077
N  23.333364  33.600686  9.336557
N  22.525930  30.988891  8.139859
N  20.111336  27.561954  5.817764
N  22.262566  28.172186  5.124026
N  21.052379  26.494368  3.951095
N  24.298173  25.646466  1.598167
N  24.057292  22.428293  62.929102
N  22.030678  24.221091  0.065520
N  21.037605  22.060226  60.179844
S  21.476972  34.697820  11.085034
S  19.254441  24.358554  64.004396
C  54.706380  37.892226  30.076112
H  54.233611  38.695164  29.875699
C  54.478346  36.789312  29.280240
C  55.124550  35.609957  29.579575
H  55.023701  34.841064  29.027797
C  55.924276  35.575270  30.703045
H  56.314825  34.757559  30.986964
C  56.155522  36.723792  31.411557
H  56.764470  36.691032  32.143194
C  46.184965  42.175416  25.597005
C  49.250902  41.153437  26.647247
H  48.587354  41.829832  26.593290
C  50.076964  41.159861  27.730249
H  50.019794  41.849103  28.379023
C  50.995524  40.143663  27.862574
H  51.587128  40.114758  28.603845
C  51.037277  39.153802  26.879778
C  50.177170  39.257220  25.821828
H  50.199652  38.573118  25.167273
C  52.019430  38.031616  26.976131
C  53.038840  36.278643  26.013248
C  53.612458  36.918424  28.100885
C  54.380709  34.535305  24.869865
H  54.946619  34.519889  25.629765
C  53.290641  35.442946  24.860230
C  52.536522  35.506539  23.711708
H  51.818374  36.119340  23.644903
C  52.832645  34.674695  22.659539
H  52.338678  34.712594  21.852747
C  53.868756  33.779259  22.807921
H  54.034482  33.170954  22.096840
C  56.006496  32.046841  27.266473
C  58.934328  30.991460  23.265917
H  58.871378  31.680702  22.617144
C  60.046236  30.258539  23.300604
H  60.734192  30.402425  22.662108
C  60.191407  29.266108  24.294319
H  60.984709  28.751586  24.364336
C  59.123179  29.070192  25.162777
C  58.006774  29.882764  25.048438
H  57.304043  29.766499  25.674729
C  59.185487  28.055921  26.203384
N  55.556852  37.900577  31.114792
N  46.693064  41.454057  24.842886
N  49.304859  40.257359  25.650320
N  52.731796  37.935264  28.064914
N  52.121564  37.241526  25.913684
N  53.799382  36.068595  27.123871
N  54.647284  33.715667  23.878077
N  57.865457  30.811602  24.118958
N  56.072659  32.183020  26.145572
N  58.233524  28.062344  27.138645
S  45.595930  43.202534  26.699278
S  55.935196  31.886896  28.921809
C  54.706380  5.774726  62.193612
H  54.233611  6.577664  61.993198
C  54.478346  4.671812  61.397740
C  55.124550  3.492457  61.697075
H  55.023701  2.723564  61.145297
C  55.924276  3.457770  62.820545
H  56.314825  2.640058  63.104464
C  56.155522  4.606292  63.529057
H  56.764470  4.573532  0.025694
C  46.184965  10.057916  57.714505
C  49.250902  9.035937  58.764747
H  48.587354  9.712332  58.710790
C  50.076964  9.042361  59.847749
H  50.019794  9.731602  60.496523
C  50.995524  8.026163  59.980074
H  51.587128  7.997257  60.721345
C  51.037277  7.036302  58.997278
C  50.177170  7.139720  57.939328
H  50.199652  6.455618  57.284773
C  52.019430  5.914116  59.093631
C  53.038840  4.161143  58.130748
C  53.612458  4.800924  60.218385
C  54.380709  2.417805  56.987365
H  54.946619  2.402389  57.747265
C  53.290641  3.325446  56.977730
C  52.536522  3.389039  55.829208
H  51.818374  4.001841  55.762403
C  52.832645  2.557195  54.777039
H  52.338678  2.595094  53.970247
C  53.868756  1.661759  54.925421
H  54.034482  1.053454  54.214340
C  56.006496  64.164342  59.383973
C  58.934328  63.108960  55.383417
H  58.871378  63.798202  54.734643
C  60.046236  62.376039  55.418104
H  60.734192  62.519925  54.779608
C  60.191407  61.383608  56.411819
H  60.984709  60.869086  56.481835
C  59.123179  61.187692  57.280277
C  58.006774  62.000264  57.165938
H  57.304043  61.883999  57.792230
C  59.185487  60.173421  58.320884
N  55.556852  5.783077  63.232292
N  46.693064  9.336557  56.960386
N  49.304859  8.139859  57.767820
N  52.731796  5.817764  60.182414
N  52.121564  5.124026  58.031184
N  53.799382  3.951095  59.241371
N  54.647284  1.598167  55.995577
N  57.865457  62.929102  56.236458
N  56.072659  0.065520  58.263072
N  58.233524  60.179844  59.256145
S  45.595930  11.085034  58.816778
S  55.935196  64.004396  61.039309
C  22.588880  37.892226  62.193612
H  22.116110  38.695164  61.993198
C  22.360846  36.789312  61.397740
C  23.007050  35.609957  61.697075
H  22.906201  34.841064  61.145297
C  23.806776  35.575270  62.820545
H  24.197324  34.757559  63.104464
C  24.038022  36.723792  63.529057
H  24.646969  36.691032  0.025694
C  14.067465  42.175416  57.714505
C  17.133402  41.153437  58.764747
H  16.469854  41.829832  58.710790
C  17.959464  41.159861  59.847749
H  17.902294  41.849103  60.496523
C  18.878024  40.143663  59.980074
H  19.469628  40.114758  60.721345
C  18.919777  39.153802  58.997278
C  18.059670  39.257220  57.939328
H  18.082152  38.573118  57.284773
C  19.901930  38.031616  59.093631
C  20.921339  36.278643  58.130748
C  21.494958  36.918424  60.218385
C  22.263209  34.535305  56.987365
H  22.829119  34.519889  57.747265
C  21.173141  35.442946  56.977730
C  20.419022  35.506539  55.829208
H  19.700874  36.119340  55.762403
C  20.715145  34.674695  54.777039
H  20.221178  34.712594  53.970247
C  21.751256  33.779259  54.925421
H  21.916982  33.170954  54.214340
C  23.888997  32.046841  59.383973
C  26.816828  30.991460  55.383417
H  26.753877  31.680702  54.734643
C  27.928736  30.258539  55.418104
H  28.616692  30.402425  54.779608
C  28.073907  29.266108  56.411819
H  28.867209  28.751586  56.481835
C  27.005679  29.070192  57.280277
C  25.889274  29.882764  57.165938
H  25.186543  29.766499  57.792230
C  27.067987  28.055921  58.320884
N  23.439352  37.900577  63.232292
N  14.575564  41.454057  56.960386
N  17.187359  40.257359  57.767820
N  20.614296  37.935264  60.182414
N  20.004064  37.241526  58.031184
N  21.681882  36.068595  59.241371
N  22.529784  33.715667  55.995577
N  25.747957  30.811602  56.236458
N  23.955159  32.183020  58.263072
N  26.116024  28.062344  59.256145
S  13.478430  43.202534  58.816778
S  23.817696  31.886896  61.039309
C  22.588880  5.774726  30.076112
H  22.116110  6.577664  29.875699
C  22.360846  4.671812  29.280240
C  23.007050  3.492457  29.579575
H  22.906201  2.723564  29.027797
C  23.806776  3.457770  30.703045
H  24.197324  2.640058  30.986964
C  24.038022  4.606292  31.411557
H  24.646969  4.573532  32.143194
C  14.067465  10.057916  25.597005
C  17.133402  9.035937  26.647247
H  16.469854  9.712332  26.593290
C  17.959464  9.042361  27.730249
H  17.902294  9.731602  28.379023
C  18.878024  8.026163  27.862574
H  19.469628  7.997257  28.603845
C  18.919777  7.036302  26.879778
C  18.059670  7.139720  25.821828
H  18.082152  6.455618  25.167273
C  19.901930  5.914116  26.976131
C  20.921339  4.161143  26.013248
C  21.494958  4.800924  28.100885
C  22.263209  2.417805  24.869865
H  22.829119  2.402389  25.629765
C  21.173141  3.325446  24.860230
C  20.419022  3.389039  23.711708
H  19.700874  4.001841  23.644903
C  20.715145  2.557195  22.659539
H  20.221178  2.595094  21.852747
C  21.751256  1.661759  22.807921
H  21.916982  1.053454  22.096840
C  23.888997  64.164342  27.266473
C  26.816828  63.108960  23.265917
H  26.753877  63.798202  22.617144
C  27.928736  62.376039  23.300604
H  28.616692  62.519925  22.662108
C  28.073907  61.383608  24.294319
H  28.867209  60.869086  24.364336
C  27.005679  61.187692  25.162777
C  25.889274  62.000264  25.048438
H  25.186543  61.883999  25.674729
C  27.067987  60.173421  26.203384
N  23.439352  5.783077  31.114792
N  14.575564  9.336557  24.842886
N  17.187359  8.139859  25.650320
N  20.614296  5.817764  28.064914
N  20.004064  5.124026  25.913684
N  21.681882  3.951095  27.123871
N  22.529784  1.598167  23.878077
N  25.747957  62.929102  24.118958
N  23.955159  0.065520  26.145572
N  26.116024  60.179844  27.138645
S  13.478430  11.085034  26.699278
S  23.817696  64.004396  28.921809
C  22.588880  42.401524  18.100138
H  22.116110  41.598586  18.300551
C  22.360846  43.504438  18.896010
C  23.007050  44.683793  18.596675
H  22.906201  45.452686  19.148453
C  23.806776  44.718480  17.473205
H  24.197324  45.536192  17.189286
C  24.038022  43.569958  16.764693
H  24.646969  43.602718  16.033056
C  14.067465  38.118334  22.579245
C  17.133402  39.140313  21.529003
H  16.469854  38.463918  21.582960
C  17.959464  39.133889  20.446001
H  17.902294  38.444648  19.797227
C  18.878024  40.150087  20.313676
H  19.469628  40.178992  19.572405
C  18.919777  41.139948  21.296472
C  18.059670  41.036530  22.354422
H  18.082152  41.720633  23.008977
C  19.901930  42.262134  21.200119
C  20.921339  44.015107  22.163002
C  21.494958  43.375326  20.075365
C  22.263209  45.758445  23.306385
H  22.829119  45.773861  22.546485
C  21.173141  44.850804  23.316020
C  20.419022  44.787211  24.464542
H  19.700874  44.174409  24.531347
C  20.715145  45.619055  25.516711
H  20.221178  45.581156  26.323503
C  21.751256  46.514491  25.368329
H  21.916982  47.122796  26.079410
C  23.888997  48.246908  20.909777
C  26.816828  49.302290  24.910333
H  26.753877  48.613048  25.559106
C  27.928736  50.035211  24.875646
H  28.616692  49.891324  25.514142
C  28.073907  51.027642  23.881931
H  28.867209  51.542164  23.811914
C  27.005679  51.223558  23.013473
C  25.889274  50.410986  23.127812
H  25.186543  50.527251  22.501521
C  27.067987  52.237829  21.972866
N  23.439352  42.393173  17.061458
N  14.575564  38.839693  23.333364
N  17.187359  40.036391  22.525930
N  20.614296  42.358486  20.111336
N  20.004064  43.052224  22.262566
N  21.681882  44.225155  21.052379
N  22.529784  46.578083  24.298173
N  25.747957  49.482148  24.057292
N  23.955159  48.110730  22.030678
N  26.116024  52.231406  21.037605
S  13.478430  37.091216  21.476972
S  23.817696  48.406854  19.254441
C  22.588880  10.284023  50.217638
H  22.116110  9.481086  50.418052
C  22.360846  11.386938  51.013510
C  23.007050  12.566293  50.714175
H  22.906201  13.335186  51.265954
C  23.806776  12.600980  49.590705
H  24.197324  13.418691  49.306786
C  24.038022  11.452458  48.882193
H  24.646969  11.485218  48.150556
C  14.067465  6.000834  54.696745
C  17.133402  7.022813  53.646503
H  16.469854  6.346418  53.700460
C  17.959464  7.016389  52.563501
H  17.902294  6.327148  51.914727
C  18.878024  8.032587  52.431176
H  19.469628  8.061492  51.689904
C  18.919777  9.022448  53.413972
C  18.059670  8.919030  54.471922
H  18.082152  9.603132  55.126477
C  19.901930  10.144634  53.317619
C  20.921339  11.897607  54.280502
C  21.494958  11.257826  52.192865
C  22.263209  13.640945  55.423885
H  22.829119  13.656361  54.663985
C  21.173141  12.733304  55.433520
C  20.419022  12.669711  56.582042
H  19.700874  12.056909  56.648846
C  20.715145  13.501555  57.634211
H  20.221178  13.463656  58.441003
C  21.751256  14.396991  57.485829
H  21.916982  15.005296  58.196910
C  23.888997  16.129409  53.027277
C  26.816828  17.184790  57.027833
H  26.753877  16.495548  57.676606
C  27.928736  17.917711  56.993146
H  28.616692  17.773824  57.631642
C  28.073907  18.910142  55.999431
H  28.867209  19.424664  55.929415
C  27.005679  19.106058  55.130973
C  25.889274  18.293486  55.245312
H  25.186543  18.409751  54.619020
C  27.067987  20.120329  54.090366
N  23.439352  10.275673  49.178958
N  14.575564  6.722193  55.450864
N  17.187359  7.918891  54.643430
N  20.614296  10.240986  52.228836
N  20.004064  10.934724  54.380066
N  21.681882  12.107655  53.169879
N  22.529784  14.460583  56.415673
N  25.747957  17.364648  56.174792
N  23.955159  15.993230  54.148178
N  26.116024  20.113906  53.155105
S  13.478430  4.973716  53.594472
S  23.817696  16.289354  51.371941
C  54.706380  42.401524  50.217638
H  54.233611  41.598586  50.418052
C  54.478346  43.504438  51.013510
C  55.124550  44.683793  50.714175
H  55.023701  45.452686  51.265954
C  55.924276  44.718480  49.590705
H  56.314825  45.536192  49.306786
C  56.155522  43.569958  48.882193
H  56.764470  43.602718  48.150556
C  46.184965  38.118334  54.696745
C  49.250902  39.140313  53.646503
H  48.587354  38.463918  53.700460
C  50.076964  39.133889  52.563501
H  50.019794  38.444648  51.914727
C  50.995524  40.150087  52.431176
H  51.587128  40.178992  51.689904
C  51.037277  41.139948  53.413972
C  50.177170  41.036530  54.471922
H  50.199652  41.720633  55.126477
C  52.019430  42.262134  53.317619
C  53.038840  44.015107  54.280502
C  53.612458  43.375326  52.192865
C  54.380709  45.758445  55.423885
H  54.946619  45.773861  54.663985
C  53.290641  44.850804  55.433520
C  52.536522  44.787211  56.582042
H  51.818374  44.174409  56.648846
C  52.832645  45.619055  57.634211
H  52.338678  45.581156  58.441003
C  53.868756  46.514491  57.485829
H  54.034482  47.122796  58.196910
C  56.006496  48.246908  53.027277
C  58.934328  49.302290  57.027833
H  58.871378  48.613048  57.676606
C  60.046236  50.035211  56.993146
H  60.734192  49.891324  57.631642
C  60.191407  51.027642  55.999431
H  60.984709  51.542164  55.929415
C  59.123179  51.223558  55.130973
C  58.006774  50.410986  55.245312
H  57.304043  50.527251  54.619020
C  59.185487  52.237829  54.090366
N  55.556852  42.393173  49.178958
N  46.693064  38.839693  55.450864
N  49.304859  40.036391  54.643430
N  52.731796  42.358486  52.228836
N  52.121564  43.052224  54.380066
N  53.799382  44.225155  53.169879
N  54.647284  46.578083  56.415673
N  57.865457  49.482148  56.174792
N  56.072659  48.110730  54.148178
N  58.233524  52.231406  53.155105
S  45.595930  37.091216  53.594472
S  55.935196  48.406854  51.371941
C  54.706380  10.284023  18.100138
H  54.233611  9.481086  18.300551
C  54.478346  11.386938  18.896010
C  55.124550  12.566293  18.596675
H  55.023701  13.335186  19.148453
C  55.924276  12.600980  17.473205
H  56.314825  13.418691  17.189286
C  56.155522  11.452458  16.764693
H  56.764470  11.485218  16.033056
C  46.184965  6.000834  22.579245
C  49.250902  7.022813  21.529003
H  48.587354  6.346418  21.582960
C  50.076964  7.016389  20.446001
H  50.019794  6.327148  19.797227
C  50.995524  8.032587  20.313676
H  51.587128  8.061492  19.572405
C  51.037277  9.022448  21.296472
C  50.177170  8.919030  22.354422
H  50.199652  9.603132  23.008977
C  52.019430  10.144634  21.200119
C  53.038840  11.897607  22.163002
C  53.612458  11.257826  20.075365
C  54.380709  13.640945  23.306385
H  54.946619  13.656361  22.546485
C  53.290641  12.733304  23.316020
C  52.536522  12.669711  24.464542
H  51.818374  12.056909  24.531347
C  52.832645  13.501555  25.516711
H  52.338678  13.463656  26.323503
C  53.868756  14.396991  25.368329
H  54.034482  15.005296  26.079410
C  56.006496  16.129409  20.909777
C  58.934328  17.184790  24.910333
H  58.871378  16.495548  25.559106
C  60.046236  17.917711  24.875646
H  60.734192  17.773824  25.514142
C  60.191407  18.910142  23.881931
H  60.984709  19.424664  23.811914
C  59.123179  19.106058  23.013473
C  58.006774  18.293486  23.127812
H  57.304043  18.409751  22.501521
C  59.185487  20.120329  21.972866
N  55.556852  10.275673  17.061458
N  46.693064  6.722193  23.333364
N  49.304859  7.918891  22.525930
N  52.731796  10.240986  20.111336
N  52.121564  10.934724  22.262566
N  53.799382  12.107655  21.052379
N  54.647284  14.460583  24.298173
N  57.865457  17.364648  24.057292
N  56.072659  15.993230  22.030678
N  58.233524  20.113906  21.037605
S  45.595930  4.973716  21.476972
S  55.935196  16.289354  19.254441
C  57.704870  5.774726  50.217638
H  58.177639  6.577664  50.418052
C  57.932904  4.671812  51.013510
C  57.286700  3.492457  50.714175
H  57.387549  2.723564  51.265954
C  56.486974  3.457770  49.590705
H  56.096425  2.640058  49.306786
C  56.255728  4.606292  48.882193
H  55.646780  4.573532  48.150556
C  1.991285  10.057916  54.696745
C  63.160348  9.035937  53.646503
H  63.823896  9.712332  53.700460
C  62.334286  9.042361  52.563501
H  62.391455  9.731602  51.914727
C  61.415726  8.026163  52.431176
H  60.824121  7.997257  51.689904
C  61.373973  7.036302  53.413972
C  62.234080  7.139720  54.471922
H  62.211598  6.455618  55.126477
C  60.391820  5.914116  53.317619
C  59.372411  4.161143  54.280502
C  58.798792  4.800924  52.192865
C  58.030541  2.417805  55.423885
H  57.464631  2.402389  54.663985
C  59.120609  3.325446  55.433520
C  59.874728  3.389039  56.582042
H  60.592875  4.001841  56.648846
C  59.578605  2.557195  57.634211
H  60.072572  2.595094  58.441003
C  58.542494  1.661759  57.485829
H  58.376768  1.053454  58.196910
C  56.404753  64.164342  53.027277
C  53.476922  63.108960  57.027833
H  53.539873  63.798202  57.676606
C  52.365014  62.376039  56.993146
H  51.677057  62.519925  57.631642
C  52.219843  61.383608  55.999431
H  51.426541  60.869086  55.929415
C  53.288071  61.187692  55.130973
C  54.404476  62.000264  55.245312
H  55.107206  61.883999  54.619020
C  53.225763  60.173421  54.090366
N  56.854399  5.783077  49.178958
N  1.483186  9.336557  55.450864
N  63.106391  8.139859  54.643430
N  59.679454  5.817764  52.228836
N  60.289686  5.124026  54.380066
N  58.611868  3.951095  53.169879
N  57.763966  1.598167  56.415673
N  54.545793  62.929102  56.174792
N  56.338591  0.065520  54.148178
N  54.177726  60.179844  53.155105
S  2.580320  11.085034  53.594472
S  56.476054  64.004396  51.371941
C  57.704870  37.892226  18.100138
H  58.177639  38.695164  18.300551
C  57.932904  36.789312  18.896010
C  57.286700  35.609957  18.596675
H  57.387549  34.841064  19.148453
C  56.486974  35.575270  17.473205
H  56.096425  34.757559  17.189286
C  56.255728  36.723792  16.764693
H  55.646780  36.691032  16.033056
C  1.991285  42.175416  22.579245
C  63.160348  41.153437  21.529003
H  63.823896  41.829832  21.582960
C  62.334286  41.159861  20.446001
H  62.391455  41.849103  19.797227
C  61.415726  40.143663  20.313676
H  60.824121  40.114758  19.572405
C  61.373973  39.153802  21.296472
C  62.234080  39.257220  22.354422
H  62.211598  38.573118  23.008977
C  60.391820  38.031616  21.200119
C  59.372411  36.278643  22.163002
C  58.798792  36.918424  20.075365
C  58.030541  34.535305  23.306385
H  57.464631  34.519889  22.546485
C  59.120609  35.442946  23.316020
C  59.874728  35.506539  24.464542
H  60.592875  36.119340  24.531347
C  59.578605  34.674695  25.516711
H  60.072572  34.712594  26.323503
C  58.542494  33.779259  25.368329
H  58.376768  33.170954  26.079410
C  56.404753  32.046841  20.909777
C  53.476922  30.991460  24.910333
H  53.539873  31.680702  25.559106
C  52.365014  30.258539  24.875646
H  51.677057  30.402425  25.514142
C  52.219843  29.266108  23.881931
H  51.426541  28.751586  23.811914
C  53.288071  29.070192  23.013473
C  54.404476  29.882764  23.127812
H  55.107206  29.766499  22.501521
C  53.225763  28.055921  21.972866
N  56.854399  37.900577  17.061458
N  1.483186  41.454057  23.333364
N  63.106391  40.257359  22.525930
N  59.679454  37.935264  20.111336
N  60.289686  37.241526  22.262566
N  58.611868  36.068595  21.052379
N  57.763966  33.715667  24.298173
N  54.545793  30.811602  24.057292
N  56.338591  32.183020  22.030678
N  54.177726  28.062344  21.037605
S  2.580320  43.202534  21.476972
S  56.476054  31.886896  19.254441
C  25.587370  5.774726  18.100138
H  26.060140  6.577664  18.300551
C  25.815404  4.671812  18.896010
C  25.169200  3.492457  18.596675
H  25.270049  2.723564  19.148453
C  24.369474  3.457770  17.473205
H  23.978926  2.640058  17.189286
C  24.138228  4.606292  16.764693
H  23.529281  4.573532  16.033056
C  34.108785  10.057916  22.579245
C  31.042848  9.035937  21.529003
H  31.706396  9.712332  21.582960
C  30.216786  9.042361  20.446001
H  30.273955  9.731602  19.797227
C  29.298226  8.026163  20.313676
H  28.706622  7.997257  19.572405
C  29.256473  7.036302  21.296472
C  30.116580  7.139720  22.354422
H  30.094098  6.455618  23.008977
C  28.274320  5.914116  21.200119
C  27.254911  4.161143  22.163002
C  26.681292  4.800924  20.075365
C  25.913041  2.417805  23.306385
H  25.347131  2.402389  22.546485
C  27.003109  3.325446  23.316020
C  27.757228  3.389039  24.464542
H  28.475376  4.001841  24.531347
C  27.461105  2.557195  25.516711
H  27.955072  2.595094  26.323503
C  26.424994  1.661759  25.368329
H  26.259268  1.053454  26.079410
C  24.287253  64.164342  20.909777
C  21.359422  63.108960  24.910333
H  21.422373  63.798202  25.559106
C  20.247514  62.376039  24.875646
H  19.559558  62.519925  25.514142
C  20.102343  61.383608  23.881931
H  19.309041  60.869086  23.811914
C  21.170571  61.187692  23.013473
C  22.286976  62.000264  23.127812
H  22.989707  61.883999  22.501521
C  21.108263  60.173421  21.972866
N  24.736898  5.783077  17.061458
N  33.600686  9.336557  23.333364
N  30.988891  8.139859  22.525930
N  27.561954  5.817764  20.111336
N  28.172186  5.124026  22.262566
N  26.494368  3.951095  21.052379
N  25.646466  1.598167  24.298173
N  22.428293  62.929102  24.057292
N  24.221091  0.065520  22.030678
N  22.060226  60.179844  21.037605
S  34.697820  11.085034  21.476972
S  24.358554  64.004396  19.254441
C  25.587370  37.892226  50.217638
H  26.060140  38.695164  50.418052
C  25.815404  36.789312  51.013510
C  25.169200  35.609957  50.714175
H  25.270049  34.841064  51.265954
C  24.369474  35.575270  49.590705
H  23.978926  34.757559  49.306786
C  24.138228  36.723792  48.882193
H  23.529281  36.691032  48.150556
C  34.108785  42.175416  54.696745
C  31.042848  41.153437  53.646503
H  31.706396  41.829832  53.700460
C  30.216786  41.159861  52.563501
H  30.273955  41.849103  51.914727
C  29.298226  40.143663  52.431176
H  28.706622  40.114758  51.689904
C  29.256473  39.153802  53.413972
C  30.116580  39.257220  54.471922
H  30.094098  38.573118  55.126477
C  28.274320  38.031616  53.317619
C  27.254911  36.278643  54.280502
C  26.681292  36.918424  52.192865
C  25.913041  34.535305  55.423885
H  25.347131  34.519889  54.663985
C  27.003109  35.442946  55.433520
C  27.757228  35.506539  56.582042
H  28.475376  36.119340  56.648846
C  27.461105  34.674695  57.634211
H  27.955072  34.712594  58.441003
C  26.424994  33.779259  57.485829
H  26.259268  33.170954  58.196910
C  24.287253  32.046841  53.027277
C  21.359422  30.991460  57.027833
H  21.422373  31.680702  57.676606
C  20.247514  30.258539  56.993146
H  19.559558  30.402425  57.631642
C  20.102343  29.266108  55.999431
H  19.309041  28.751586  55.929415
C  21.170571  29.070192  55.130973
C  22.286976  29.882764  55.245312
H  22.989707  29.766499  54.619020
C  21.108263  28.055921  54.090366
N  24.736898  37.900577  49.178958
N  33.600686  41.454057  55.450864
N  30.988891  40.257359  54.643430
N  27.561954  37.935264  52.228836
N  28.172186  37.241526  54.380066
N  26.494368  36.068595  53.169879
N  25.646466  33.715667  56.415673
N  22.428293  30.811602  56.174792
N  24.221091  32.183020  54.148178
N  22.060226  28.062344  53.155105
S  34.697820  43.202534  53.594472
S  24.358554  31.886896  51.371941
C  25.587370  10.284023  62.193612
H  26.060140  9.481086  61.993198
C  25.815404  11.386938  61.397740
C  25.169200  12.566293  61.697075
H  25.270049  13.335186  61.145297
C  24.369474  12.600980  62.820545
H  23.978926  13.418691  63.104464
C  24.138228  11.452458  63.529057
H  23.529281  11.485218  0.025694
C  34.108785  6.000834  57.714505
C  31.042848  7.022813  58.764747
H  31.706396  6.346418  58.710790
C  30.216786  7.016389  59.847749
H  30.273955  6.327148  60.496523
C  29.298226  8.032587  59.980074
H  28.706622  8.061492  60.721345
C  29.256473  9.022448  58.997278
C  30.116580  8.919030  57.939328
H  30.094098  9.603132  57.284773
C  28.274320  10.144634  59.093631
C  27.254911  11.897607  58.130748
C  26.681292  11.257826  60.218385
C  25.913041  13.640945  56.987365
H  25.347131  13.656361  57.747265
C  27.003109  12.733304  56.977730
C  27.757228  12.669711  55.829208
H  28.475376  12.056909  55.762403
C  27.461105  13.501555  54.777039
H  27.955072  13.463656  53.970247
C  26.424994  14.396991  54.925421
H  26.259268  15.005296  54.214340
C  24.287253  16.129409  59.383973
C  21.359422  17.184790  55.383417
H  21.422373  16.495548  54.734643
C  20.247514  17.917711  55.418104
H  19.559558  17.773824  54.779608
C  20.102343  18.910142  56.411819
H  19.309041  19.424664  56.481835
C  21.170571  19.106058  57.280277
C  22.286976  18.293486  57.165938
H  22.989707  18.409751  57.792230
C  21.108263  20.120329  58.320884
N  24.736898  10.275673  63.232292
N  33.600686  6.722193  56.960386
N  30.988891  7.918891  57.767820
N  27.561954  10.240986  60.182414
N  28.172186  10.934724  58.031184
N  26.494368  12.107655  59.241371
N  25.646466  14.460583  55.995577
N  22.428293  17.364648  56.236458
N  24.221091  15.993230  58.263072
N  22.060226  20.113906  59.256145
S  34.697820  4.973716  58.816778
S  24.358554  16.289354  61.039309
C  25.587370  42.401524  30.076112
H  26.060140  41.598586  29.875699
C  25.815404  43.504438  29.280240
C  25.169200  44.683793  29.579575
H  25.270049  45.452686  29.027797
C  24.369474  44.718480  30.703045
H  23.978926  45.536192  30.986964
C  24.138228  43.569958  31.411557
H  23.529281  43.602718  32.143194
C  34.108785  38.118334  25.597005
C  31.042848  39.140313  26.647247
H  31.706396  38.463918  26.593290
C  30.216786  39.133889  27.730249
H  30.273955  38.444648  28.379023
C  29.298226  40.150087  27.862574
H  28.706622  40.178992  28.603845
C  29.256473  41.139948  26.879778
C  30.116580  41.036530  25.821828
H  30.094098  41.720633  25.167273
C  28.274320  42.262134  26.976131
C  27.254911  44.015107  26.013248
C  26.681292  43.375326  28.100885
C  25.913041  45.758445  24.869865
H  25.347131  45.773861  25.629765
C  27.003109  44.850804  24.860230
C  27.757228  44.787211  23.711708
H  28.475376  44.174409  23.644903
C  27.461105  45.619055  22.659539
H  27.955072  45.581156  21.852747
C  26.424994  46.514491  22.807921
H  26.259268  47.122796  22.096840
C  24.287253  48.246908  27.266473
C  21.359422  49.302290  23.265917
H  21.422373  48.613048  22.617144
C  20.247514  50.035211  23.300604
H  19.559558  49.891324  22.662108
C  20.102343  51.027642  24.294319
H  19.309041  51.542164  24.364336
C  21.170571  51.223558  25.162777
C  22.286976  50.410986  25.048438
H  22.989707  50.527251  25.674729
C  21.108263  52.237829  26.203384
N  24.736898  42.393173  31.114792
N  33.600686  38.839693  24.842886
N  30.988891  40.036391  25.650320
N  27.561954  42.358486  28.064914
N  28.172186  43.052224  25.913684
N  26.494368  44.225155  27.123871
N  25.646466  46.578083  23.878077
N  22.428293  49.482148  24.118958
N  24.221091  48.110730  26.145572
N  22.060226  52.231406  27.138645
S  34.697820  37.091216  26.699278
S  24.358554  48.406854  28.921809
C  57.704870  10.284023  30.076112
H  58.177639  9.481086  29.875699
C  57.932904  11.386938  29.280240
C  57.286700  12.566293  29.579575
H  57.387549  13.335186  29.027797
C  56.486974  12.600980  30.703045
H  56.096425  13.418691  30.986964
C  56.255728  11.452458  31.411557
H  55.646780  11.485218  32.143194
C  1.991285  6.000834  25.597005
C  63.160348  7.022813  26.647247
H  63.823896  6.346418  26.593290
C  62.334286  7.016389  27.730249
H  62.391455  6.327148  28.379023
C  61.415726  8.032587  27.862574
H  60.824121  8.061492  28.603845
C  61.373973  9.022448  26.879778
C  62.234080  8.919030  25.821828
H  62.211598  9.603132  25.167273
C  60.391820  10.144634  26.976131
C  59.372411  11.897607  26.013248
C  58.798792  11.257826  28.100885
C  58.030541  13.640945  24.869865
H  57.464631  13.656361  25.629765
C  59.120609  12.733304  24.860230
C  59.874728  12.669711  23.711708
H  60.592875  12.056909  23.644903
C  59.578605  13.501555  22.659539
H  60.072572  13.463656  21.852747
C  58.542494  14.396991  22.807921
H  58.376768  15.005296  22.096840
C  56.404753  16.129409  27.266473
C  53.476922  17.184790  23.265917
H  53.539873  16.495548  22.617144
C  52.365014  17.917711  23.300604
H  51.677057  17.773824  22.662108
C  52.219843  18.910142  24.294319
H  51.426541  19.424664  24.364336
C  53.288071  19.106058  25.162777
C  54.404476  18.293486  25.048438
H  55.107206  18.409751  25.674729
C  53.225763  20.120329  26.203384
N  56.854399  10.275673  31.114792
N  1.483186  6.722193  24.842886
N  63.106391  7.918891  25.650320
N  59.679454  10.240986  28.064914
N  60.289686  10.934724  25.913684
N  58.611868  12.107655  27.123871
N  57.763966  14.460583  23.878077
N  54.545793  17.364648  24.118958
N  56.338591  15.993230  26.145572
N  54.177726  20.113906  27.138645
S  2.580320  4.973716  26.699278
S  56.476054  16.289354  28.921809
C  57.704870  42.401524  62.193612
H  58.177639  41.598586  61.993198
C  57.932904  43.504438  61.397740
C  57.286700  44.683793  61.697075
H  57.387549  45.452686  61.145297
C  56.486974  44.718480  62.820545
H  56.096425  45.536192  63.104464
C  56.255728  43.569958  63.529057
H  55.646780  43.602718  0.025694
C  1.991285  38.118334  57.714505
C  63.160348  39.140313  58.764747
H  63.823896  38.463918  58.710790
C  62.334286  39.133889  59.847749
H  62.391455  38.444648  60.496523
C  61.415726  40.150087  59.980074
H  60.824121  40.178992  60.721345
C  61.373973  41.139948  58.997278
C  62.234080  41.036530  57.939328
H  62.211598  41.720633  57.284773
C  60.391820  42.262134  59.093631
C  59.372411  44.015107  58.130748
C  58.798792  43.375326  60.218385
C  58.030541  45.758445  56.987365
H  57.464631  45.773861  57.747265
C  59.120609  44.850804  56.977730
C  59.874728  44.787211  55.829208
H  60.592875  44.174409  55.762403
C  59.578605  45.619055  54.777039
H  60.072572  45.581156  53.970247
C  58.542494  46.514491  54.925421
H  58.376768  47.122796  54.214340
C  56.404753  48.246908  59.383973
C  53.476922  49.302290  55.383417
H  53.539873  48.613048  54.734643
C  52.365014  50.035211  55.418104
H  51.677057  49.891324  54.779608
C  52.219843  51.027642  56.411819
H  51.426541  51.542164  56.481835
C  53.288071  51.223558  57.280277
C  54.404476  50.410986  57.165938
H  55.107206  50.527251  57.792230
C  53.225763  52.237829  58.320884
N  56.854399  42.393173  63.232292
N  1.483186  38.839693  56.960386
N  63.106391  40.036391  57.767820
N  59.679454  42.358486  60.182414
N  60.289686  43.052224  58.031184
N  58.611868  44.225155  59.241371
N  57.763966  46.578083  55.995577
N  54.545793  49.482148  56.236458
N  56.338591  48.110730  58.263072
N  54.177726  52.231406  59.256145
S  2.580320  37.091216  58.816778
S  56.476054  48.406854  61.039309
C  30.076112  42.401524  57.704870
H  29.875699  41.598586  58.177639
C  29.280240  43.504438  57.932904
C  29.579575  44.683793  57.286700
H  29.027797  45.452686  57.387549
C  30.703045  44.718480  56.486974
H  30.986964  45.536192  56.096425
C  31.411557  43.569958  56.255728
H  32.143194  43.602718  55.646780
C  25.597005  38.118334  1.991285
C  26.647247  39.140313  63.160348
H  26.593290  38.463918  63.823896
C  27.730249  39.133889  62.334286
H  28.379023  38.444648  62.391455
C  27.862574  40.150087  61.415726
H  28.603845  40.178992  60.824121
C  26.879778  41.139948  61.373973
C  25.821828  41.036530  62.234080
H  25.167273  41.720633  62.211598
C  26.976131  42.262134  60.391820
C  26.013248  44.015107  59.372411
C  28.100885  43.375326  58.798792
C  24.869865  45.758445  58.030541
H  25.629765  45.773861  57.464631
C  24.860230  44.850804  59.120609
C  23.711708  44.787211  59.874728
H  23.644903  44.174409  60.592875
C  22.659539  45.619055  59.578605
H  21.852747  45.581156  60.072572
C  22.807921  46.514491  58.542494
H  22.096840  47.122796  58.376768
C  27.266473  48.246908  56.404753
C  23.265917  49.302290  53.476922
H  22.617144  48.613048  53.539873
C  23.300604  50.035211  52.365014
H  22.662108  49.891324  51.677057
C  24.294319  51.027642  52.219843
H  24.364336  51.542164  51.426541
C  25.162777  51.223558  53.288071
C  25.048438  50.410986  54.404476
H  25.674729  50.527251  55.107206
C  26.203384  52.237829  53.225763
N  31.114792  42.393173  56.854399
N  24.842886  38.839693  1.483186
N  25.650320  40.036391  63.106391
N  28.064914  42.358486  59.679454
N  25.913684  43.052224  60.289686
N  27.123871  44.225155  58.611868
N  23.878077  46.578083  57.763966
N  24.118958  49.482148  54.545793
N  26.145572  48.110730  56.338591
N  27.138645  52.231406  54.177726
S  26.699278  37.091216  2.580320
S  28.921809  48.406854  56.476054
C  30.076112  10.284023  25.587370
H  29.875699  9.481086  26.060140
C  29.280240  11.386938  25.815404
C  29.579575  12.566293  25.169200
H  29.027797  13.335186  25.270049
C  30.703045  12.600980  24.369474
H  30.986964  13.418691  23.978926
C  31.411557  11.452458  24.138228
H  32.143194  11.485218  23.529281
C  25.597005  6.000834  34.108785
C  26.647247  7.022813  31.042848
H  26.593290  6.346418  31.706396
C  27.730249  7.016389  30.216786
H  28.379023  6.327148  30.273955
C  27.862574  8.032587  29.298226
H  28.603845  8.061492  28.706622
C  26.879778  9.022448  29.256473
C  25.821828  8.919030  30.116580
H  25.167273  9.603132  30.094098
C  26.976131  10.144634  28.274320
C  26.013248  11.897607  27.254911
C  28.100885  11.257826  26.681292
C  24.869865  13.640945  25.913041
H  25.629765  13.656361  25.347131
C  24.860230  12.733304  27.003109
C  23.711708  12.669711  27.757228
H  23.644903  12.056909  28.475376
C  22.659539  13.501555  27.461105
H  21.852747  13.463656  27.955072
C  22.807921  14.396991  26.424994
H  22.096840  15.005296  26.259268
C  27.266473  16.129409  24.287253
C  23.265917  17.184790  21.359422
H  22.617144  16.495548  21.422373
C  23.300604  17.917711  20.247514
H  22.662108  17.773824  19.559558
C  24.294319  18.910142  20.102343
H  24.364336  19.424664  19.309041
C  25.162777  19.106058  21.170571
C  25.048438  18.293486  22.286976
H  25.674729  18.409751  22.989707
C  26.203384  20.120329  21.108263
N  31.114792  10.275673  24.736898
N  24.842886  6.722193  33.600686
N  25.650320  7.918891  30.988891
N  28.064914  10.240986  27.561954
N  25.913684  10.934724  28.172186
N  27.123871  12.107655  26.494368
N  23.878077  14.460583  25.646466
N  24.118958  17.364648  22.428293
N  26.145572  15.993230  24.221091
N  27.138645  20.113906  22.060226
S  26.699278  4.973716  34.697820
S  28.921809  16.289354  24.358554
C  62.193612  42.401524  25.587370
H  61.993198  41.598586  26.060140
C  61.397740  43.504438  25.815404
C  61.697075  44.683793  25.169200
H  61.145297  45.452686  25.270049
C  62.820545  44.718480  24.369474
H  63.104464  45.536192  23.978926
C  63.529057  43.569958  24.138228
H  0.025694  43.602718  23.529281
C  57.714505  38.118334  34.108785
C  58.764747  39.140313  31.042848
H  58.710790  38.463918  31.706396
C  59.847749  39.133889  30.216786
H  60.496523  38.444648  30.273955
C  59.980074  40.150087  29.298226
H  60.721345  40.178992  28.706622
C  58.997278  41.139948  29.256473
C  57.939328  41.036530  30.116580
H  57.284773  41.720633  30.094098
C  59.093631  42.262134  28.274320
C  58.130748  44.015107  27.254911
C  60.218385  43.375326  26.681292
C  56.987365  45.758445  25.913041
H  57.747265  45.773861  25.347131
C  56.977730  44.850804  27.003109
C  55.829208  44.787211  27.757228
H  55.762403  44.174409  28.475376
C  54.777039  45.619055  27.461105
H  53.970247  45.581156  27.955072
C  54.925421  46.514491  26.424994
H  54.214340  47.122796  26.259268
C  59.383973  48.246908  24.287253
C  55.383417  49.302290  21.359422
H  54.734643  48.613048  21.422373
C  55.418104  50.035211  20.247514
H  54.779608  49.891324  19.559558
C  56.411819  51.027642  20.102343
H  56.481835  51.542164  19.309041
C  57.280277  51.223558  21.170571
C  57.165938  50.410986  22.286976
H  57.792230  50.527251  22.989707
C  58.320884  52.237829  21.108263
N  63.232292  42.393173  24.736898
N  56.960386  38.839693  33.600686
N  57.767820  40.036391  30.988891
N  60.182414  42.358486  27.561954
N  58.031184  43.052224  28.172186
N  59.241371  44.225155  26.494368
N  55.995577  46.578083  25.646466
N  56.236458  49.482148  22.428293
N  58.263072  48.110730  24.221091
N  59.256145  52.231406  22.060226
S  58.816778  37.091216  34.697820
S  61.039309  48.406854  24.358554
C  62.193612  10.284023  57.704870
H  61.993198  9.481086  58.177639
C  61.397740  11.386938  57.932904
C  61.697075  12.566293  57.286700
H  61.145297  13.335186  57.387549
C  62.820545  12.600980  56.486974
H  63.104464  13.418691  56.096425
C  63.529057  11.452458  56.255728
H  0.025694  11.485218  55.646780
C  57.714505  6.000834  1.991285
C  58.764747  7.022813  63.160348
H  58.710790  6.346418  63.823896
C  59.847749  7.016389  62.334286
H  60.496523  6.327148  62.391455
C  59.980074  8.032587  61.415726
H  60.721345  8.061492  60.824121
C  58.997278  9.022448  61.373973
C  57.939328  8.919030  62.234080
H  57.284773  9.603132  62.211598
C  59.093631  10.144634  60.391820
C  58.130748  11.897607  59.372411
C  60.218385  11.257826  58.798792
C  56.987365  13.640945  58.030541
H  57.747265  13.656361  57.464631
C  56.977730  12.733304  59.120609
C  55.829208  12.669711  59.874728
H  55.762403  12.056909  60.592875
C  54.777039  13.501555  59.578605
H  53.970247  13.463656  60.072572
C  54.925421  14.396991  58.542494
H  54.214340  15.005296  58.376768
C  59.383973  16.129409  56.404753
C  55.383417  17.184790  53.476922
H  54.734643  16.495548  53.539873
C  55.418104  17.917711  52.365014
H  54.779608  17.773824  51.677057
C  56.411819  18.910142  52.219843
H  56.481835  19.424664  51.426541
C  57.280277  19.106058  53.288071
C  57.165938  18.293486  54.404476
H  57.792230  18.409751  55.107206
C  58.320884  20.120329  53.225763
N  63.232292  10.275673  56.854399
N  56.960386  6.722193  1.483186
N  57.767820  7.918891  63.106391
N  60.182414  10.240986  59.679454
N  58.031184  10.934724  60.289686
N  59.241371  12.107655  58.611868
N  55.995577  14.460583  57.763966
N  56.236458  17.364648  54.545793
N  58.263072  15.993230  56.338591
N  59.256145  20.113906  54.177726
S  58.816778  4.973716  2.580320
S  61.039309  16.289354  56.476054
C  18.100138  37.892226  25.587370
H  18.300551  38.695164  26.060140
C  18.896010  36.789312  25.815404
C  18.596675  35.609957  25.169200
H  19.148453  34.841064  25.270049
C  17.473205  35.575270  24.369474
H  17.189286  34.757559  23.978926
C  16.764693  36.723792  24.138228
H  16.033056  36.691032  23.529281
C  22.579245  42.175416  34.108785
C  21.529003  41.153437  31.042848
H  21.582960  41.829832  31.706396
C  20.446001  41.159861  30.216786
H  19.797227  41.849103  30.273955
C  20.313676  40.143663  29.298226
H  19.572405  40.114758  28.706622
C  21.296472  39.153802  29.256473
C  22.354422  39.257220  30.116580
H  23.008977  38.573118  30.094098
C  21.200119  38.031616  28.274320
C  22.163002  36.278643  27.254911
C  20.075365  36.918424  26.681292
C  23.306385  34.535305  25.913041
H  22.546485  34.519889  25.347131
C  23.316020  35.442946  27.003109
C  24.464542  35.506539  27.757228
H  24.531347  36.119340  28.475376
C  25.516711  34.674695  27.461105
H  26.323503  34.712594  27.955072
C  25.368329  33.779259  26.424994
H  26.079410  33.170954  26.259268
C  20.909777  32.046841  24.287253
C  24.910333  30.991460  21.359422
H  25.559106  31.680702  21.422373
C  24.875646  30.258539  20.247514
H  25.514142  30.402425  19.559558
C  23.881931  29.266108  20.102343
H  23.811914  28.751586  19.309041
C  23.013473  29.070192  21.170571
C  23.127812  29.882764  22.286976
H  22.501521  29.766499  22.989707
C  21.972866  28.055921  21.108263
N  17.061458  37.900577  24.736898
N  23.333364  41.454057  33.600686
N  22.525930  40.257359  30.988891
N  20.111336  37.935264  27.561954
N  22.262566  37.241526  28.172186
N  21.052379  36.068595  26.494368
N  24.298173  33.715667  25.646466
N  24.057292  30.811602  22.428293
N  22.030678  32.183020  24.221091
N  21.037605  28.062344  22.060226
S  21.476972  43.202534  34.697820
S  19.254441  31.886896  24.358554
C  18.100138  5.774726  57.704870
H  18.300551  6.577664  58.177639
C  18.896010  4.671812  57.932904
C  18.596675  3.492457  57.286700
H  19.148453  2.723564  57.387549
C  17.473205  3.457770  56.486974
H  17.189286  2.640058  56.096425
C  16.764693  4.606292  56.255728
H  16.033056  4.573532  55.646780
C  22.579245  10.057916  1.991285
C  21.529003  9.035937  63.160348
H  21.582960  9.712332  63.823896
C  20.446001  9.042361  62.334286
H  19.797227  9.731602  62.391455
C  20.313676  8.026163  61.415726
H  19.572405  7.997257  60.824121
C  21.296472  7.036302  61.373973
C  22.354422  7.139720  62.234080
H  23.008977  6.455618  62.211598
C  21.200119  5.914116  60.391820
C  22.163002  4.161143  59.372411
C  20.075365  4.800924  58.798792
C  23.306385  2.417805  58.030541
H  22.546485  2.402389  57.464631
C  23.316020  3.325446  59.120609
C  24.464542  3.389039  59.874728
H  24.531347  4.001841  60.592875
C  25.516711  2.557195  59.578605
H  26.323503  2.595094  60.072572
C  25.368329  1.661759  58.542494
H  26.079410  1.053454  58.376768
C  20.909777  64.164342  56.404753
C  24.910333  63.108960  53.476922
H  25.559106  63.798202  53.539873
C  24.875646  62.376039  52.365014
H  25.514142  62.519925  51.677057
C  23.881931  61.383608  52.219843
H  23.811914  60.869086  51.426541
C  23.013473  61.187692  53.288071
C  23.127812  62.000264  54.404476
H  22.501521  61.883999  55.107206
C  21.972866  60.173421  53.225763
N  17.061458  5.783077  56.854399
N  23.333364  9.336557  1.483186
N  22.525930  8.139859  63.106391
N  20.111336  5.817764  59.679454
N  22.262566  5.124026  60.289686
N  21.052379  3.951095  58.611868
N  24.298173  1.598167  57.763966
N  24.057292  62.929102  54.545793
N  22.030678  0.065520  56.338591
N  21.037605  60.179844  54.177726
S  21.476972  11.085034  2.580320
S  19.254441  64.004396  56.476054
C  50.217638  37.892226  57.704870
H  50.418052  38.695164  58.177639
C  51.013510  36.789312  57.932904
C  50.714175  35.609957  57.286700
H  51.265954  34.841064  57.387549
C  49.590705  35.575270  56.486974
H  49.306786  34.757559  56.096425
C  48.882193  36.723792  56.255728
H  48.150556  36.691032  55.646780
C  54.696745  42.175416  1.991285
C  53.646503  41.153437  63.160348
H  53.700460  41.829832  63.823896
C  52.563501  41.159861  62.334286
H  51.914727  41.849103  62.391455
C  52.431176  40.143663  61.415726
H  51.689904  40.114758  60.824121
C  53.413972  39.153802  61.373973
C  54.471922  39.257220  62.234080
H  55.126477  38.573118  62.211598
C  53.317619  38.031616  60.391820
C  54.280502  36.278643  59.372411
C  52.192865  36.918424  58.798792
C  55.423885  34.535305  58.030541
H  54.663985  34.519889  57.464631
C  55.433520  35.442946  59.120609
C  56.582042  35.506539  59.874728
H  56.648846  36.119340  60.592875
C  57.634211  34.674695  59.578605
H  58.441003  34.712594  60.072572
C  57.485829  33.779259  58.542494
H  58.196910  33.170954  58.376768
C  53.027277  32.046841  56.404753
C  57.027833  30.991460  53.476922
H  57.676606  31.680702  53.539873
C  56.993146  30.258539  52.365014
H  57.631642  30.402425  51.677057
C  55.999431  29.266108  52.219843
H  55.929415  28.751586  51.426541
C  55.130973  29.070192  53.288071
C  55.245312  29.882764  54.404476
H  54.619020  29.766499  55.107206
C  54.090366  28.055921  53.225763
N  49.178958  37.900577  56.854399
N  55.450864  41.454057  1.483186
N  54.643430  40.257359  63.106391
N  52.228836  37.935264  59.679454
N  54.380066  37.241526  60.289686
N  53.169879  36.068595  58.611868
N  56.415673  33.715667  57.763966
N  56.174792  30.811602  54.545793
N  54.148178  32.183020  56.338591
N  53.155105  28.062344  54.177726
S  53.594472  43.202534  2.580320
S  51.371941  31.886896  56.476054
C  50.217638  5.774726  25.587370
H  50.418052  6.577664  26.060140
C  51.013510  4.671812  25.815404
C  50.714175  3.492457  25.169200
H  51.265954  2.723564  25.270049
C  49.590705  3.457770  24.369474
H  49.306786  2.640058  23.978926
C  48.882193  4.606292  24.138228
H  48.150556  4.573532  23.529281
C  54.696745  10.057916  34.108785
C  53.646503  9.035937  31.042848
H  53.700460  9.712332  31.706396
C  52.563501  9.042361  30.216786
H  51.914727  9.731602  30.273955
C  52.431176  8.026163  29.298226
H  51.689904  7.997257  28.706622
C  53.413972  7.036302  29.256473
C  54.471922  7.139720  30.116580
H  55.126477  6.455618  30.094098
C  53.317619  5.914116  28.274320
C  54.280502  4.161143  27.254911
C  52.192865  4.800924  26.681292
C  55.423885  2.417805  25.913041
H  54.663985  2.402389  25.347131
C  55.433520  3.325446  27.003109
C  56.582042  3.389039  27.757228
H  56.648846  4.001841  28.475376
C  57.634211  2.557195  27.461105
H  58.441003  2.595094  27.955072
C  57.485829  1.661759  26.424994
H  58.196910  1.053454  26.259268
C  53.027277  64.164342  24.287253
C  57.027833  63.108960  21.359422
H  57.676606  63.798202  21.422373
C  56.993146  62.376039  20.247514
H  57.631642  62.519925  19.559558
C  55.999431  61.383608  20.102343
H  55.929415  60.869086  19.309041
C  55.130973  61.187692  21.170571
C  55.245312  62.000264  22.286976
H  54.619020  61.883999  22.989707
C  54.090366  60.173421  21.108263
N  49.178958  5.783077  24.736898
N  55.450864  9.336557  33.600686
N  54.643430  8.139859  30.988891
N  52.228836  5.817764  27.561954
N  54.380066  5.124026  28.172186
N  53.169879  3.951095  26.494368
N  56.415673  1.598167  25.646466
N  56.174792  62.929102  22.428293
N  54.148178  0.065520  24.221091
N  53.155105  60.179844  22.060226
S  53.594472  11.085034  34.697820
S  51.371941  64.004396  24.358554
C  50.217638  10.284023  54.706380
H  50.418052  9.481086  54.233611
C  51.013510  11.386938  54.478346
C  50.714175  12.566293  55.124550
H  51.265954  13.335186  55.023701
C  49.590705  12.600980  55.924276
H  49.306786  13.418691  56.314825
C  48.882193  11.452458  56.155522
H  48.150556  11.485218  56.764470
C  54.696745  6.000834  46.184965
C  53.646503  7.022813  49.250902
H  53.700460  6.346418  48.587354
C  52.563501  7.016389  50.076964
H  51.914727  6.327148  50.019794
C  52.431176  8.032587  50.995524
H  51.689904  8.061492  51.587128
C  53.413972  9.022448  51.037277
C  54.471922  8.919030  50.177170
H  55.126477  9.603132  50.199652
C  53.317619  10.144634  52.019430
C  54.280502  11.897607  53.038840
C  52.192865  11.257826  53.612458
C  55.423885  13.640945  54.380709
H  54.663985  13.656361  54.946619
C  55.433520  12.733304  53.290641
C  56.582042  12.669711  52.536522
H  56.648846  12.056909  51.818374
C  57.634211  13.501555  52.832645
H  58.441003  13.463656  52.338678
C  57.485829  14.396991  53.868756
H  58.196910  15.005296  54.034482
C  53.027277  16.129409  56.006496
C  57.027833  17.184790  58.934328
H  57.676606  16.495548  58.871378
C  56.993146  17.917711  60.046236
H  57.631642  17.773824  60.734192
C  55.999431  18.910142  60.191407
H  55.929415  19.424664  60.984709
C  55.130973  19.106058  59.123179
C  55.245312  18.293486  58.006774
H  54.619020  18.409751  57.304043
C  54.090366  20.120329  59.185487
N  49.178958  10.275673  55.556852
N  55.450864  6.722193  46.693064
N  54.643430  7.918891  49.304859
N  52.228836  10.240986  52.731796
N  54.380066  10.934724  52.121564
N  53.169879  12.107655  53.799382
N  56.415673  14.460583  54.647284
N  56.174792  17.364648  57.865457
N  54.148178  15.993230  56.072659
N  53.155105  20.113906  58.233524
S  53.594472  4.973716  45.595930
S  51.371941  16.289354  55.935196
C  50.217638  42.401524  22.588880
H  50.418052  41.598586  22.116110
C  51.013510  43.504438  22.360846
C  50.714175  44.683793  23.007050
H  51.265954  45.452686  22.906201
C  49.590705  44.718480  23.806776
H  49.306786  45.536192  24.197324
C  48.882193  43.569958  24.038022
H  48.150556  43.602718  24.646969
C  54.696745  38.118334  14.067465
C  53.646503  39.140313  17.133402
H  53.700460  38.463918  16.469854
C  52.563501  39.133889  17.959464
H  51.914727  38.444648  17.902294
C  52.431176  40.150087  18.878024
H  51.689904  40.178992  19.469628
C  53.413972  41.139948  18.919777
C  54.471922  41.036530  18.059670
H  55.126477  41.720633  18.082152
C  53.317619  42.262134  19.901930
C  54.280502  44.015107  20.921339
C  52.192865  43.375326  21.494958
C  55.423885  45.758445  22.263209
H  54.663985  45.773861  22.829119
C  55.433520  44.850804  21.173141
C  56.582042  44.787211  20.419022
H  56.648846  44.174409  19.700874
C  57.634211  45.619055  20.715145
H  58.441003  45.581156  20.221178
C  57.485829  46.514491  21.751256
H  58.196910  47.122796  21.916982
C  53.027277  48.246908  23.888997
C  57.027833  49.302290  26.816828
H  57.676606  48.613048  26.753877
C  56.993146  50.035211  27.928736
H  57.631642  49.891324  28.616692
C  55.999431  51.027642  28.073907
H  55.929415  51.542164  28.867209
C  55.130973  51.223558  27.005679
C  55.245312  50.410986  25.889274
H  54.619020  50.527251  25.186543
C  54.090366  52.237829  27.067987
N  49.178958  42.393173  23.439352
N  55.450864  38.839693  14.575564
N  54.643430  40.036391  17.187359
N  52.228836  42.358486  20.614296
N  54.380066  43.052224  20.004064
N  53.169879  44.225155  21.681882
N  56.415673  46.578083  22.529784
N  56.174792  49.482148  25.747957
N  54.148178  48.110730  23.955159
N  53.155105  52.231406  26.116024
S  53.594472  37.091216  13.478430
S  51.371941  48.406854  23.817696
C  18.100138  10.284023  22.588880
H  18.300551  9.481086  22.116110
C  18.896010  11.386938  22.360846
C  18.596675  12.566293  23.007050
H  19.148453  13.335186  22.906201
C  17.473205  12.600980  23.806776
H  17.189286  13.418691  24.197324
C  16.764693  11.452458  24.038022
H  16.033056  11.485218  24.646969
C  22.579245  6.000834  14.067465
C  21.529003  7.022813  17.133402
H  21.582960  6.346418  16.469854
C  20.446001  7.016389  17.959464
H  19.797227  6.327148  17.902294
C  20.313676  8.032587  18.878024
H  19.572405  8.061492  19.469628
C  21.296472  9.022448  18.919777
C  22.354422  8.919030  18.059670
H  23.008977  9.603132  18.082152
C  21.200119  10.144634  19.901930
C  22.163002  11.897607  20.921339
C  20.075365  11.257826  21.494958
C  23.306385  13.640945  22.263209
H  22.546485  13.656361  22.829119
C  23.316020  12.733304  21.173141
C  24.464542  12.669711  20.419022
H  24.531347  12.056909  19.700874
C  25.516711  13.501555  20.715145
H  26.323503  13.463656  20.221178
C  25.368329  14.396991  21.751256
H  26.079410  15.005296  21.916982
C  20.909777  16.129409  23.888997
C  24.910333  17.184790  26.816828
H  25.559106  16.495548  26.753877
C  24.875646  17.917711  27.928736
H  25.514142  17.773824  28.616692
C  23.881931  18.910142  28.073907
H  23.811914  19.424664  28.867209
C  23.013473  19.106058  27.005679
C  23.127812  18.293486  25.889274
H  22.501521  18.409751  25.186543
C  21.972866  20.120329  27.067987
N  17.061458  10.275673  23.439352
N  23.333364  6.722193  14.575564
N  22.525930  7.918891  17.187359
N  20.111336  10.240986  20.614296
N  22.262566  10.934724  20.004064
N  21.052379  12.107655  21.681882
N  24.298173  14.460583  22.529784
N  24.057292  17.364648  25.747957
N  22.030678  15.993230  23.955159
N  21.037605  20.113906  26.116024
S  21.476972  4.973716  13.478430
S  19.254441  16.289354  23.817696
C  18.100138  42.401524  54.706380
H  18.300551  41.598586  54.233611
C  18.896010  43.504438  54.478346
C  18.596675  44.683793  55.124550
H  19.148453  45.452686  55.023701
C  17.473205  44.718480  55.924276
H  17.189286  45.536192  56.314825
C  16.764693  43.569958  56.155522
H  16.033056  43.602718  56.764470
C  22.579245  38.118334  46.184965
C  21.529003  39.140313  49.250902
H  21.582960  38.463918  48.587354
C  20.446001  39.133889  50.076964
H  19.797227  38.444648  50.019794
C  20.313676  40.150087  50.995524
H  19.572405  40.178992  51.587128
C  21.296472  41.139948  51.037277
C  22.354422  41.036530  50.177170
H  23.008977  41.720633  50.199652
C  21.200119  42.262134  52.019430
C  22.163002  44.015107  53.038840
C  20.075365  43.375326  53.612458
C  23.306385  45.758445  54.380709
H  22.546485  45.773861  54.946619
C  23.316020  44.850804  53.290641
C  24.464542  44.787211  52.536522
H  24.531347  44.174409  51.818374
C  25.516711  45.619055  52.832645
H  26.323503  45.581156  52.338678
C  25.368329  46.514491  53.868756
H  26.079410  47.122796  54.034482
C  20.909777  48.246908  56.006496
C  24.910333  49.302290  58.934328
H  25.559106  48.613048  58.871378
C  24.875646  50.035211  60.046236
H  25.514142  49.891324  60.734192
C  23.881931  51.027642  60.191407
H  23.811914  51.542164  60.984709
C  23.013473  51.223558  59.123179
C  23.127812  50.410986  58.006774
H  22.501521  50.527251  57.304043
C  21.972866  52.237829  59.185487
N  17.061458  42.393173  55.556852
N  23.333364  38.839693  46.693064
N  22.525930  40.036391  49.304859
N  20.111336  42.358486  52.731796
N  22.262566  43.052224  52.121564
N  21.052379  44.225155  53.799382
N  24.298173  46.578083  54.647284
N  24.057292  49.482148  57.865457
N  22.030678  48.110730  56.072659
N  21.037605  52.231406  58.233524
S  21.476972  37.091216  45.595930
S  19.254441  48.406854  55.935196
C  62.193612  5.774726  22.588880
H  61.993198  6.577664  22.116110
C  61.397740  4.671812  22.360846
C  61.697075  3.492457  23.007050
H  61.145297  2.723564  22.906201
C  62.820545  3.457770  23.806776
H  63.104464  2.640058  24.197324
C  63.529057  4.606292  24.038022
H  0.025694  4.573532  24.646969
C  57.714505  10.057916  14.067465
C  58.764747  9.035937  17.133402
H  58.710790  9.712332  16.469854
C  59.847749  9.042361  17.959464
H  60.496523  9.731602  17.902294
C  59.980074  8.026163  18.878024
H  60.721345  7.997257  19.469628
C  58.997278  7.036302  18.919777
C  57.939328  7.139720  18.059670
H  57.284773  6.455618  18.082152
C  59.093631  5.914116  19.901930
C  58.130748  4.161143  20.921339
C  60.218385  4.800924  21.494958
C  56.987365  2.417805  22.263209
H  57.747265  2.402389  22.829119
C  56.977730  3.325446  21.173141
C  55.829208  3.389039  20.419022
H  55.762403  4.001841  19.700874
C  54.777039  2.557195  20.715145
H  53.970247  2.595094  20.221178
C  54.925421  1.661759  21.751256
H  54.214340  1.053454  21.916982
C  59.383973  64.164342  23.888997
C  55.383417  63.108960  26.816828
H  54.734643  63.798202  26.753877
C  55.418104  62.376039  27.928736
H  54.779608  62.519925  28.616692
C  56.411819  61.383608  28.073907
H  56.481835  60.869086  28.867209
C  57.280277  61.187692  27.005679
C  57.165938  62.000264  25.889274
H  57.792230  61.883999  25.186543
C  58.320884  60.173421  27.067987
N  63.232292  5.783077  23.439352
N  56.960386  9.336557  14.575564
N  57.767820  8.139859  17.187359
N  60.182414  5.817764  20.614296
N  58.031184  5.124026  20.004064
N  59.241371  3.951095  21.681882
N  55.995577  1.598167  22.529784
N  56.236458  62.929102  25.747957
N  58.263072  0.065520  23.955159
N  59.256145  60.179844  26.116024
S  58.816778  11.085034  13.478430
S  61.039309  64.004396  23.817696
C  62.193612  37.892226  54.706380
H  61.993198  38.695164  54.233611
C  61.397740  36.789312  54.478346
C  61.697075  35.609957  55.124550
H  61.145297  34.841064  55.023701
C  62.820545  35.575270  55.924276
H  63.104464  34.757559  56.314825
C  63.529057  36.723792  56.155522
H  0.025694  36.691032  56.764470
C  57.714505  42.175416  46.184965
C  58.764747  41.153437  49.250902
H  58.710790  41.829832  48.587354
C  59.847749  41.159861  50.076964
H  60.496523  41.849103  50.019794
C  59.980074  40.143663  50.995524
H  60.721345  40.114758  51.587128
C  58.997278  39.153802  51.037277
C  57.939328  39.257220  50.177170
H  57.284773  38.573118  50.199652
C  59.093631  38.031616  52.019430
C  58.130748  36.278643  53.038840
C  60.218385  36.918424  53.612458
C  56.987365  34.535305  54.380709
H  57.747265  34.519889  54.946619
C  56.977730  35.442946  53.290641
C  55.829208  35.506539  52.536522
H  55.762403  36.119340  51.818374
C  54.777039  34.674695  52.832645
H  53.970247  34.712594  52.338678
C  54.925421  33.779259  53.868756
H  54.214340  33.170954  54.034482
C  59.383973  32.046841  56.006496
C  55.383417  30.991460  58.934328
H  54.734643  31.680702  58.871378
C  55.418104  30.258539  60.046236
H  54.779608  30.402425  60.734192
C  56.411819  29.266108  60.191407
H  56.481835  28.751586  60.984709
C  57.280277  29.070192  59.123179
C  57.165938  29.882764  58.006774
H  57.792230  29.766499  57.304043
C  58.320884  28.055921  59.185487
N  63.232292  37.900577  55.556852
N  56.960386  41.454057  46.693064
N  57.767820  40.257359  49.304859
N  60.182414  37.935264  52.731796
N  58.031184  37.241526  52.121564
N  59.241371  36.068595  53.799382
N  55.995577  33.715667  54.647284
N  56.236458  30.811602  57.865457
N  58.263072  32.183020  56.072659
N  59.256145  28.062344  58.233524
S  58.816778  43.202534  45.595930
S  61.039309  31.886896  55.935196
C  30.076112  5.774726  54.706380
H  29.875699  6.577664  54.233611
C  29.280240  4.671812  54.478346
C  29.579575  3.492457  55.124550
H  29.027797  2.723564  55.023701
C  30.703045  3.457770  55.924276
H  30.986964  2.640058  56.314825
C  31.411557  4.606292  56.155522
H  32.143194  4.573532  56.764470
C  25.597005  10.057916  46.184965
C  26.647247  9.035937  49.250902
H  26.593290  9.712332  48.587354
C  27.730249  9.042361  50.076964
H  28.379023  9.731602  50.019794
C  27.862574  8.026163  50.995524
H  28.603845  7.997257  51.587128
C  26.879778  7.036302  51.037277
C  25.821828  7.139720  50.177170
H  25.167273  6.455618  50.199652
C  26.976131  5.914116  52.019430
C  26.013248  4.161143  53.038840
C  28.100885  4.800924  53.612458
C  24.869865  2.417805  54.380709
H  25.629765  2.402389  54.946619
C  24.860230  3.325446  53.290641
C  23.711708  3.389039  52.536522
H  23.644903  4.001841  51.818374
C  22.659539  2.557195  52.832645
H  21.852747  2.595094  52.338678
C  22.807921  1.661759  53.868756
H  22.096840  1.053454  54.034482
C  27.266473  64.164342  56.006496
C  23.265917  63.108960  58.934328
H  22.617144  63.798202  58.871378
C  23.300604  62.376039  60.046236
H  22.662108  62.519925  60.734192
C  24.294319  61.383608  60.191407
H  24.364336  60.869086  60.984709
C  25.162777  61.187692  59.123179
C  25.048438  62.000264  58.006774
H  25.674729  61.883999  57.304043
C  26.203384  60.173421  59.185487
N  31.114792  5.783077  55.556852
N  24.842886  9.336557  46.693064
N  25.650320  8.139859  49.304859
N  28.064914  5.817764  52.731796
N  25.913684  5.124026  52.121564
N  27.123871  3.951095  53.799382
N  23.878077  1.598167  54.647284
N  24.118958  62.929102  57.865457
N  26.145572  0.065520  56.072659
N  27.138645  60.179844  58.233524
S  26.699278  11.085034  45.595930
S  28.921809  64.004396  55.935196
C  30.076112  37.892226  22.588880
H  29.875699  38.695164  22.116110
C  29.280240  36.789312  22.360846
C  29.579575  35.609957  23.007050
H  29.027797  34.841064  22.906201
C  30.703045  35.575270  23.806776
H  30.986964  34.757559  24.197324
C  31.411557  36.723792  24.038022
H  32.143194  36.691032  24.646969
C  25.597005  42.175416  14.067465
C  26.647247  41.153437  17.133402
H  26.593290  41.829832  16.469854
C  27.730249  41.159861  17.959464
H  28.379023  41.849103  17.902294
C  27.862574  40.143663  18.878024
H  28.603845  40.114758  19.469628
C  26.879778  39.153802  18.919777
C  25.821828  39.257220  18.059670
H  25.167273  38.573118  18.082152
C  26.976131  38.031616  19.901930
C  26.013248  36.278643  20.921339
C  28.100885  36.918424  21.494958
C  24.869865  34.535305  22.263209
H  25.629765  34.519889  22.829119
C  24.860230  35.442946  21.173141
C  23.711708  35.506539  20.419022
H  23.644903  36.119340  19.700874
C  22.659539  34.674695  20.715145
H  21.852747  34.712594  20.221178
C  22.807921  33.779259  21.751256
H  22.096840  33.170954  21.916982
C  27.266473  32.046841  23.888997
C  23.265917  30.991460  26.816828
H  22.617144  31.680702  26.753877
C  23.300604  30.258539  27.928736
H  22.662108  30.402425  28.616692
C  24.294319  29.266108  28.073907
H  24.364336  28.751586  28.867209
C  25.162777  29.070192  27.005679
C  25.048438  29.882764  25.889274
H  25.674729  29.766499  25.186543
C  26.203384  28.055921  27.067987
N  31.114792  37.900577  23.439352
N  24.842886  41.454057  14.575564
N  25.650320  40.257359  17.187359
N  28.064914  37.935264  20.614296
N  25.913684  37.241526  20.004064
N  27.123871  36.068595  21.681882
N  23.878077  33.715667  22.529784
N  24.118958  30.811602  25.747957
N  26.145572  32.183020  23.955159
N  27.138645  28.062344  26.116024
S  26.699278  43.202534  13.478430
S  28.921809  31.886896  23.817696
C  57.704870  30.076112  42.401524
H  58.177639  29.875699  41.598586
C  57.932904  29.280240  43.504438
C  57.286700  29.579575  44.683793
H  57.387549  29.027797  45.452686
C  56.486974  30.703045  44.718480
H  56.096425  30.986964  45.536192
C  56.255728  31.411557  43.569958
H  55.646780  32.143194  43.602718
C  1.991285  25.597005  38.118334
C  63.160348  26.647247  39.140313
H  63.823896  26.593290  38.463918
C  62.334286  27.730249  39.133889
H  62.391455  28.379023  38.444648
C  61.415726  27.862574  40.150087
H  60.824121  28.603845  40.178992
C  61.373973  26.879778  41.139948
C  62.234080  25.821828  41.036530
H  62.211598  25.167273  41.720633
C  60.391820  26.976131  42.262134
C  59.372411  26.013248  44.015107
C  58.798792  28.100885  43.375326
C  58.030541  24.869865  45.758445
H  57.464631  25.629765  45.773861
C  59.120609  24.860230  44.850804
C  59.874728  23.711708  44.787211
H  60.592875  23.644903  44.174409
C  59.578605  22.659539  45.619055
H  60.072572  21.852747  45.581156
C  58.542494  22.807921  46.514491
H  58.376768  22.096840  47.122796
C  56.404753  27.266473  48.246908
C  53.476922  23.265917  49.302290
H  53.539873  22.617144  48.613048
C  52.365014  23.300604  50.035211
H  51.677057  22.662108  49.891324
C  52.219843  24.294319  51.027642
H  51.426541  24.364336  51.542164
C  53.288071  25.162777  51.223558
C  54.404476  25.048438  50.410986
H  55.107206  25.674729  50.527251
C  53.225763  26.203384  52.237829
N  56.854399  31.114792  42.393173
N  1.483186  24.842886  38.839693
N  63.106391  25.650320  40.036391
N  59.679454  28.064914  42.358486
N  60.289686  25.913684  43.052224
N  58.611868  27.123871  44.225155
N  57.763966  23.878077  46.578083
N  54.545793  24.118958  49.482148
N  56.338591  26.145572  48.110730
N  54.177726  27.138645  52.231406
S  2.580320  26.699278  37.091216
S  56.476054  28.921809  48.406854
C  57.704870  62.193612  10.284023
H  58.177639  61.993198  9.481086
C  57.932904  61.397740  11.386938
C  57.286700  61.697075  12.566293
H  57.387549  61.145297  13.335186
C  56.486974  62.820545  12.600980
H  56.096425  63.104464  13.418691
C  56.255728  63.529057  11.452458
H  55.646780  0.025694  11.485218
C  1.991285  57.714505  6.000834
C  63.160348  58.764747  7.022813
H  63.823896  58.710790  6.346418
C  62.334286  59.847749  7.016389
H  62.391455  60.496523  6.327148
C  61.415726  59.980074  8.032587
H  60.824121  60.721345  8.061492
C  61.373973  58.997278  9.022448
C  62.234080  57.939328  8.919030
H  62.211598  57.284773  9.603132
C  60.391820  59.093631  10.144634
C  59.372411  58.130748  11.897607
C  58.798792  60.218385  11.257826
C  58.030541  56.987365  13.640945
H  57.464631  57.747265  13.656361
C  59.120609  56.977730  12.733304
C  59.874728  55.829208  12.669711
H  60.592875  55.762403  12.056909
C  59.578605  54.777039  13.501555
H  60.072572  53.970247  13.463656
C  58.542494  54.925421  14.396991
H  58.376768  54.214340  15.005296
C  56.404753  59.383973  16.129409
C  53.476922  55.383417  17.184790
H  53.539873  54.734643  16.495548
C  52.365014  55.418104  17.917711
H  51.677057  54.779608  17.773824
C  52.219843  56.411819  18.910142
H  51.426541  56.481835  19.424664
C  53.288071  57.280277  19.106058
C  54.404476  57.165938  18.293486
H  55.107206  57.792230  18.409751
C  53.225763  58.320884  20.120329
N  56.854399  63.232292  10.275673
N  1.483186  56.960386  6.722193
N  63.106391  57.767820  7.918891
N  59.679454  60.182414  10.240986
N  60.289686  58.031184  10.934724
N  58.611868  59.241371  12.107655
N  57.763966  55.995577  14.460583
N  54.545793  56.236458  17.364648
N  56.338591  58.263072  15.993230
N  54.177726  59.256145  20.113906
S  2.580320  58.816778  4.973716
S  56.476054  61.039309  16.289354
C  25.587370  30.076112  10.284023
H  26.060140  29.875699  9.481086
C  25.815404  29.280240  11.386938
C  25.169200  29.579575  12.566293
H  25.270049  29.027797  13.335186
C  24.369474  30.703045  12.600980
H  23.978926  30.986964  13.418691
C  24.138228  31.411557  11.452458
H  23.529281  32.143194  11.485218
C  34.108785  25.597005  6.000834
C  31.042848  26.647247  7.022813
H  31.706396  26.593290  6.346418
C  30.216786  27.730249  7.016389
H  30.273955  28.379023  6.327148
C  29.298226  27.862574  8.032587
H  28.706622  28.603845  8.061492
C  29.256473  26.879778  9.022448
C  30.116580  25.821828  8.919030
H  30.094098  25.167273  9.603132
C  28.274320  26.976131  10.144634
C  27.254911  26.013248  11.897607
C  26.681292  28.100885  11.257826
C  25.913041  24.869865  13.640945
H  25.347131  25.629765  13.656361
C  27.003109  24.860230  12.733304
C  27.757228  23.711708  12.669711
H  28.475376  23.644903  12.056909
C  27.461105  22.659539  13.501555
H  27.955072  21.852747  13.463656
C  26.424994  22.807921  14.396991
H  26.259268  22.096840  15.005296
C  24.287253  27.266473  16.129409
C  21.359422  23.265917  17.184790
H  21.422373  22.617144  16.495548
C  20.247514  23.300604  17.917711
H  19.559558  22.662108  17.773824
C  20.102343  24.294319  18.910142
H  19.309041  24.364336  19.424664
C  21.170571  25.162777  19.106058
C  22.286976  25.048438  18.293486
H  22.989707  25.674729  18.409751
C  21.108263  26.203384  20.120329
N  24.736898  31.114792  10.275673
N  33.600686  24.842886  6.722193
N  30.988891  25.650320  7.918891
N  27.561954  28.064914  10.240986
N  28.172186  25.913684  10.934724
N  26.494368  27.123871  12.107655
N  25.646466  23.878077  14.460583
N  22.428293  24.118958  17.364648
N  24.221091  26.145572  15.993230
N  22.060226  27.138645  20.113906
S  34.697820  26.699278  4.973716
S  24.358554  28.921809  16.289354
C  25.587370  62.193612  42.401524
H  26.060140  61.993198  41.598586
C  25.815404  61.397740  43.504438
C  25.169200  61.697075  44.683793
H  25.270049  61.145297  45.452686
C  24.369474  62.820545  44.718480
H  23.978926  63.104464  45.536192
C  24.138228  63.529057  43.569958
H  23.529281  0.025694  43.602718
C  34.108785  57.714505  38.118334
C  31.042848  58.764747  39.140313
H  31.706396  58.710790  38.463918
C  30.216786  59.847749  39.133889
H  30.273955  60.496523  38.444648
C  29.298226  59.980074  40.150087
H  28.706622  60.721345  40.178992
C  29.256473  58.997278  41.139948
C  30.116580  57.939328  41.036530
H  30.094098  57.284773  41.720633
C  28.274320  59.093631  42.262134
C  27.254911  58.130748  44.015107
C  26.681292  60.218385  43.375326
C  25.913041  56.987365  45.758445
H  25.347131  57.747265  45.773861
C  27.003109  56.977730  44.850804
C  27.757228  55.829208  44.787211
H  28.475376  55.762403  44.174409
C  27.461105  54.777039  45.619055
H  27.955072  53.970247  45.581156
C  26.424994  54.925421  46.514491
H  26.259268  54.214340  47.122796
C  24.287253  59.383973  48.246908
C  21.359422  55.383417  49.302290
H  21.422373  54.734643  48.613048
C  20.247514  55.418104  50.035211
H  19.559558  54.779608  49.891324
C  20.102343  56.411819  51.027642
H  19.309041  56.481835  51.542164
C  21.170571  57.280277  51.223558
C  22.286976  57.165938  50.410986
H  22.989707  57.792230  50.527251
C  21.108263  58.320884  52.237829
N  24.736898  63.232292  42.393173
N  33.600686  56.960386  38.839693
N  30.988891  57.767820  40.036391
N  27.561954  60.182414  42.358486
N  28.172186  58.031184  43.052224
N  26.494368  59.241371  44.225155
N  25.646466  55.995577  46.578083
N  22.428293  56.236458  49.482148
N  24.221091  58.263072  48.110730
N  22.060226  59.256145  52.231406
S  34.697820  58.816778  37.091216
S  24.358554  61.039309  48.406854
C  25.587370  18.100138  37.892226
H  26.060140  18.300551  38.695164
C  25.815404  18.896010  36.789312
C  25.169200  18.596675  35.609957
H  25.270049  19.148453  34.841064
C  24.369474  17.473205  35.575270
H  23.978926  17.189286  34.757559
C  24.138228  16.764693  36.723792
H  23.529281  16.033056  36.691032
C  34.108785  22.579245  42.175416
C  31.042848  21.529003  41.153437
H  31.706396  21.582960  41.829832
C  30.216786  20.446001  41.159861
H  30.273955  19.797227  41.849103
C  29.298226  20.313676  40.143663
H  28.706622  19.572405  40.114758
C  29.256473  21.296472  39.153802
C  30.116580  22.354422  39.257220
H  30.094098  23.008977  38.573118
C  28.274320  21.200119  38.031616
C  27.254911  22.163002  36.278643
C  26.681292  20.075365  36.918424
C  25.913041  23.306385  34.535305
H  25.347131  22.546485  34.519889
C  27.003109  23.316020  35.442946
C  27.757228  24.464542  35.506539
H  28.475376  24.531347  36.119340
C  27.461105  25.516711  34.674695
H  27.955072  26.323503  34.712594
C  26.424994  25.368329  33.779259
H  26.259268  26.079410  33.170954
C  24.287253  20.909777  32.046841
C  21.359422  24.910333  30.991460
H  21.422373  25.559106  31.680702
C  20.247514  24.875646  30.258539
H  19.559558  25.514142  30.402425
C  20.102343  23.881931  29.266108
H  19.309041  23.811914  28.751586
C  21.170571  23.013473  29.070192
C  22.286976  23.127812  29.882764
H  22.989707  22.501521  29.766499
C  21.108263  21.972866  28.055921
N  24.736898  17.061458  37.900577
N  33.600686  23.333364  41.454057
N  30.988891  22.525930  40.257359
N  27.561954  20.111336  37.935264
N  28.172186  22.262566  37.241526
N  26.494368  21.052379  36.068595
N  25.646466  24.298173  33.715667
N  22.428293  24.057292  30.811602
N  24.221091  22.030678  32.183020
N  22.060226  21.037605  28.062344
S  34.697820  21.476972  43.202534
S  24.358554  19.254441  31.886896
C  25.587370  50.217638  5.774726
H  26.060140  50.418052  6.577664
C  25.815404  51.013510  4.671812
C  25.169200  50.714175  3.492457
H  25.270049  51.265954  2.723564
C  24.369474  49.590705  3.457770
H  23.978926  49.306786  2.640058
C  24.138228  48.882193  4.606292
H  23.529281  48.150556  4.573532
C  34.108785  54.696745  10.057916
C  31.042848  53.646503  9.035937
H  31.706396  53.700460  9.712332
C  30.216786  52.563501  9.042361
H  30.273955  51.914727  9.731602
C  29.298226  52.431176  8.026163
H  28.706622  51.689904  7.997257
C  29.256473  53.413972  7.036302
C  30.116580  54.471922  7.139720
H  30.094098  55.126477  6.455618
C  28.274320  53.317619  5.914116
C  27.254911  54.280502  4.161143
C  26.681292  52.192865  4.800924
C  25.913041  55.423885  2.417805
H  25.347131  54.663985  2.402389
C  27.003109  55.433520  3.325446
C  27.757228  56.582042  3.389039
H  28.475376  56.648846  4.001841
C  27.461105  57.634211  2.557195
H  27.955072  58.441003  2.595094
C  26.424994  57.485829  1.661759
H  26.259268  58.196910  1.053454
C  24.287253  53.027277  64.164342
C  21.359422  57.027833  63.108960
H  21.422373  57.676606  63.798202
C  20.247514  56.993146  62.376039
H  19.559558  57.631642  62.519925
C  20.102343  55.999431  61.383608
H  19.309041  55.929415  60.869086
C  21.170571  55.130973  61.187692
C  22.286976  55.245312  62.000264
H  22.989707  54.619020  61.883999
C  21.108263  54.090366  60.173421
N  24.736898  49.178958  5.783077
N  33.600686  55.450864  9.336557
N  30.988891  54.643430  8.139859
N  27.561954  52.228836  5.817764
N  28.172186  54.380066  5.124026
N  26.494368  53.169879  3.951095
N  25.646466  56.415673  1.598167
N  22.428293  56.174792  62.929102
N  24.221091  54.148178  0.065520
N  22.060226  53.155105  60.179844
S  34.697820  53.594472  11.085034
S  24.358554  51.371941  64.004396
C  57.704870  18.100138  5.774726
H  58.177639  18.300551  6.577664
C  57.932904  18.896010  4.671812
C  57.286700  18.596675  3.492457
H  57.387549  19.148453  2.723564
C  56.486974  17.473205  3.457770
H  56.096425  17.189286  2.640058
C  56.255728  16.764693  4.606292
H  55.646780  16.033056  4.573532
C  1.991285  22.579245  10.057916
C  63.160348  21.529003  9.035937
H  63.823896  21.582960  9.712332
C  62.334286  20.446001  9.042361
H  62.391455  19.797227  9.731602
C  61.415726  20.313676  8.026163
H  60.824121  19.572405  7.997257
C  61.373973  21.296472  7.036302
C  62.234080  22.354422  7.139720
H  62.211598  23.008977  6.455618
C  60.391820  21.200119  5.914116
C  59.372411  22.163002  4.161143
C  58.798792  20.075365  4.800924
C  58.030541  23.306385  2.417805
H  57.464631  22.546485  2.402389
C  59.120609  23.316020  3.325446
C  59.874728  24.464542  3.389039
H  60.592875  24.531347  4.001841
C  59.578605  25.516711  2.557195
H  60.072572  26.323503  2.595094
C  58.542494  25.368329  1.661759
H  58.376768  26.079410  1.053454
C  56.404753  20.909777  64.164342
C  53.476922  24.910333  63.108960
H  53.539873  25.559106  63.798202
C  52.365014  24.875646  62.376039
H  51.677057  25.514142  62.519925
C  52.219843  23.881931  61.383608
H  51.426541  23.811914  60.869086
C  53.288071  23.013473  61.187692
C  54.404476  23.127812  62.000264
H  55.107206  22.501521  61.883999
C  53.225763  21.972866  60.173421
N  56.854399  17.061458  5.783077
N  1.483186  23.333364  9.336557
N  63.106391  22.525930  8.139859
N  59.679454  20.111336  5.817764
N  60.289686  22.262566  5.124026
N  58.611868  21.052379  3.951095
N  57.763966  24.298173  1.598167
N  54.545793  24.057292  62.929102
N  56.338591  22.030678  0.065520
N  54.177726  21.037605  60.179844
S  2.580320  21.476972  11.085034
S  56.476054  19.254441  64.004396
C  57.704870  50.217638  37.892226
H  58.177639  50.418052  38.695164
C  57.932904  51.013510  36.789312
C  57.286700  50.714175  35.609957
H  57.387549  51.265954  34.841064
C  56.486974  49.590705  35.575270
H  56.096425  49.306786  34.757559
C  56.255728  48.882193  36.723792
H  55.646780  48.150556  36.691032
C  1.991285  54.696745  42.175416
C  63.160348  53.646503  41.153437
H  63.823896  53.700460  41.829832
C  62.334286  52.563501  41.159861
H  62.391455  51.914727  41.849103
C  61.415726  52.431176  40.143663
H  60.824121  51.689904  40.114758
C  61.373973  53.413972  39.153802
C  62.234080  54.471922  39.257220
H  62.211598  55.126477  38.573118
C  60.391820  53.317619  38.031616
C  59.372411  54.280502  36.278643
C  58.798792  52.192865  36.918424
C  58.030541  55.423885  34.535305
H  57.464631  54.663985  34.519889
C  59.120609  55.433520  35.442946
C  59.874728  56.582042  35.506539
H  60.592875  56.648846  36.119340
C  59.578605  57.634211  34.674695
H  60.072572  58.441003  34.712594
C  58.542494  57.485829  33.779259
H  58.376768  58.196910  33.170954
C  56.404753  53.027277  32.046841
C  53.476922  57.027833  30.991460
H  53.539873  57.676606  31.680702
C  52.365014  56.993146  30.258539
H  51.677057  57.631642  30.402425
C  52.219843  55.999431  29.266108
H  51.426541  55.929415  28.751586
C  53.288071  55.130973  29.070192
C  54.404476  55.245312  29.882764
H  55.107206  54.619020  29.766499
C  53.225763  54.090366  28.055921
N  56.854399  49.178958  37.900577
N  1.483186  55.450864  41.454057
N  63.106391  54.643430  40.257359
N  59.679454  52.228836  37.935264
N  60.289686  54.380066  37.241526
N  58.611868  53.169879  36.068595
N  57.763966  56.415673  33.715667
N  54.545793  56.174792  30.811602
N  56.338591  54.148178  32.183020
N  54.177726  53.155105  28.062344
S  2.580320  53.594472  43.202534
S  56.476054  51.371941  31.886896
C  54.706380  50.217638  10.284023
H  54.233611  50.418052  9.481086
C  54.478346  51.013510  11.386938
C  55.124550  50.714175  12.566293
H  55.023701  51.265954  13.335186
C  55.924276  49.590705  12.600980
H  56.314825  49.306786  13.418691
C  56.155522  48.882193  11.452458
H  56.764470  48.150556  11.485218
C  46.184965  54.696745  6.000834
C  49.250902  53.646503  7.022813
H  48.587354  53.700460  6.346418
C  50.076964  52.563501  7.016389
H  50.019794  51.914727  6.327148
C  50.995524  52.431176  8.032587
H  51.587128  51.689904  8.061492
C  51.037277  53.413972  9.022448
C  50.177170  54.471922  8.919030
H  50.199652  55.126477  9.603132
C  52.019430  53.317619  10.144634
C  53.038840  54.280502  11.897607
C  53.612458  52.192865  11.257826
C  54.380709  55.423885  13.640945
H  54.946619  54.663985  13.656361
C  53.290641  55.433520  12.733304
C  52.536522  56.582042  12.669711
H  51.818374  56.648846  12.056909
C  52.832645  57.634211  13.501555
H  52.338678  58.441003  13.463656
C  53.868756  57.485829  14.396991
H  54.034482  58.196910  15.005296
C  56.006496  53.027277  16.129409
C  58.934328  57.027833  17.184790
H  58.871378  57.676606  16.495548
C  60.046236  56.993146  17.917711
H  60.734192  57.631642  17.773824
C  60.191407  55.999431  18.910142
H  60.984709  55.929415  19.424664
C  59.123179  55.130973  19.106058
C  58.006774  55.245312  18.293486
H  57.304043  54.619020  18.409751
C  59.185487  54.090366  20.120329
N  55.556852  49.178958  10.275673
N  46.693064  55.450864  6.722193
N  49.304859  54.643430  7.918891
N  52.731796  52.228836  10.240986
N  52.121564  54.380066  10.934724
N  53.799382  53.169879  12.107655
N  54.647284  56.415673  14.460583
N  57.865457  56.174792  17.364648
N  56.072659  54.148178  15.993230
N  58.233524  53.155105  20.113906
S  45.595930  53.594472  4.973716
S  55.935196  51.371941  16.289354
C  54.706380  18.100138  42.401524
H  54.233611  18.300551  41.598586
C  54.478346  18.896010  43.504438
C  55.124550  18.596675  44.683793
H  55.023701  19.148453  45.452686
C  55.924276  17.473205  44.718480
H  56.314825  17.189286  45.536192
C  56.155522  16.764693  43.569958
H  56.764470  16.033056  43.602718
C  46.184965  22.579245  38.118334
C  49.250902  21.529003  39.140313
H  48.587354  21.582960  38.463918
C  50.076964  20.446001  39.133889
H  50.019794  19.797227  38.444648
C  50.995524  20.313676  40.150087
H  51.587128  19.572405  40.178992
C  51.037277  21.296472  41.139948
C  50.177170  22.354422  41.036530
H  50.199652  23.008977  41.720633
C  52.019430  21.200119  42.262134
C  53.038840  22.163002  44.015107
C  53.612458  20.075365  43.375326
C  54.380709  23.306385  45.758445
H  54.946619  22.546485  45.773861
C  53.290641  23.316020  44.850804
C  52.536522  24.464542  44.787211
H  51.818374  24.531347  44.174409
C  52.832645  25.516711  45.619055
H  52.338678  26.323503  45.581156
C  53.868756  25.368329  46.514491
H  54.034482  26.079410  47.122796
C  56.006496  20.909777  48.246908
C  58.934328  24.910333  49.302290
H  58.871378  25.559106  48.613048
C  60.046236  24.875646  50.035211
H  60.734192  25.514142  49.891324
C  60.191407  23.881931  51.027642
H  60.984709  23.811914  51.542164
C  59.123179  23.013473  51.223558
C  58.006774  23.127812  50.410986
H  57.304043  22.501521  50.527251
C  59.185487  21.972866  52.237829
N  55.556852  17.061458  42.393173
N  46.693064  23.333364  38.839693
N  49.304859  22.525930  40.036391
N  52.731796  20.111336  42.358486
N  52.121564  22.262566  43.052224
N  53.799382  21.052379  44.225155
N  54.647284  24.298173  46.578083
N  57.865457  24.057292  49.482148
N  56.072659  22.030678  48.110730
N  58.233524  21.037605  52.231406
S  45.595930  21.476972  37.091216
S  55.935196  19.254441  48.406854
C  22.588880  50.217638  42.401524
H  22.116110  50.418052  41.598586
C  22.360846  51.013510  43.504438
C  23.007050  50.714175  44.683793
H  22.906201  51.265954  45.452686
C  23.806776  49.590705  44.718480
H  24.197324  49.306786  45.536192
C  24.038022  48.882193  43.569958
H  24.646969  48.150556  43.602718
C  14.067465  54.696745  38.118334
C  17.133402  53.646503  39.140313
H  16.469854  53.700460  38.463918
C  17.959464  52.563501  39.133889
H  17.902294  51.914727  38.444648
C  18.878024  52.431176  40.150087
H  19.469628  51.689904  40.178992
C  18.919777  53.413972  41.139948
C  18.059670  54.471922  41.036530
H  18.082152  55.126477  41.720633
C  19.901930  53.317619  42.262134
C  20.921339  54.280502  44.015107
C  21.494958  52.192865  43.375326
C  22.263209  55.423885  45.758445
H  22.829119  54.663985  45.773861
C  21.173141  55.433520  44.850804
C  20.419022  56.582042  44.787211
H  19.700874  56.648846  44.174409
C  20.715145  57.634211  45.619055
H  20.221178  58.441003  45.581156
C  21.751256  57.485829  46.514491
H  21.916982  58.196910  47.122796
C  23.888997  53.027277  48.246908
C  26.816828  57.027833  49.302290
H  26.753877  57.676606  48.613048
C  27.928736  56.993146  50.035211
H  28.616692  57.631642  49.891324
C  28.073907  55.999431  51.027642
H  28.867209  55.929415  51.542164
C  27.005679  55.130973  51.223558
C  25.889274  55.245312  50.410986
H  25.186543  54.619020  50.527251
C  27.067987  54.090366  52.237829
N  23.439352  49.178958  42.393173
N  14.575564  55.450864  38.839693
N  17.187359  54.643430  40.036391
N  20.614296  52.228836  42.358486
N  20.004064  54.380066  43.052224
N  21.681882  53.169879  44.225155
N  22.529784  56.415673  46.578083
N  25.747957  56.174792  49.482148
N  23.955159  54.148178  48.110730
N  26.116024  53.155105  52.231406
S  13.478430  53.594472  37.091216
S  23.817696  51.371941  48.406854
C  22.588880  18.100138  10.284023
H  22.116110  18.300551  9.481086
C  22.360846  18.896010  11.386938
C  23.007050  18.596675  12.566293
H  22.906201  19.148453  13.335186
C  23.806776  17.473205  12.600980
H  24.197324  17.189286  13.418691
C  24.038022  16.764693  11.452458
H  24.646969  16.033056  11.485218
C  14.067465  22.579245  6.000834
C  17.133402  21.529003  7.022813
H  16.469854  21.582960  6.346418
C  17.959464  20.446001  7.016389
H  17.902294  19.797227  6.327148
C  18.878024  20.313676  8.032587
H  19.469628  19.572405  8.061492
C  18.919777  21.296472  9.022448
C  18.059670  22.354422  8.919030
H  18.082152  23.008977  9.603132
C  19.901930  21.200119  10.144634
C  20.921339  22.163002  11.897607
C  21.494958  20.075365  11.257826
C  22.263209  23.306385  13.640945
H  22.829119  22.546485  13.656361
C  21.173141  23.316020  12.733304
C  20.419022  24.464542  12.669711
H  19.700874  24.531347  12.056909
C  20.715145  25.516711  13.501555
H  20.221178  26.323503  13.463656
C  21.751256  25.368329  14.396991
H  21.916982  26.079410  15.005296
C  23.888997  20.909777  16.129409
C  26.816828  24.910333  17.184790
H  26.753877  25.559106  16.495548
C  27.928736  24.875646  17.917711
H  28.616692  25.514142  17.773824
C  28.073907  23.881931  18.910142
H  28.867209  23.811914  19.424664
C  27.005679  23.013473  19.106058
C  25.889274  23.127812  18.293486
H  25.186543  22.501521  18.409751
C  27.067987  21.972866  20.120329
N  23.439352  17.061458  10.275673
N  14.575564  23.333364  6.722193
N  17.187359  22.525930  7.918891
N  20.614296  20.111336  10.240986
N  20.004064  22.262566  10.934724
N  21.681882  21.052379  12.107655
N  22.529784  24.298173  14.460583
N  25.747957  24.057292  17.364648
N  23.955159  22.030678  15.993230
N  26.116024  21.037605  20.113906
S  13.478430  21.476972  4.973716
S  23.817696  19.254441  16.289354
C  22.588880  62.193612  5.774726
H  22.116110  61.993198  6.577664
C  22.360846  61.397740  4.671812
C  23.007050  61.697075  3.492457
H  22.906201  61.145297  2.723564
C  23.806776  62.820545  3.457770
H  24.197324  63.104464  2.640058
C  24.038022  63.529057  4.606292
H  24.646969  0.025694  4.573532
C  14.067465  57.714505  10.057916
C  17.133402  58.764747  9.035937
H  16.469854  58.710790  9.712332
C  17.959464  59.847749  9.042361
H  17.902294  60.496523  9.731602
C  18.878024  59.980074  8.026163
H  19.469628  60.721345  7.997257
C  18.919777  58.997278  7.036302
C  18.059670  57.939328  7.139720
H  18.082152  57.284773  6.455618
C  19.901930  59.093631  5.914116
C  20.921339  58.130748  4.161143
C  21.494958  60.218385  4.800924
C  22.263209  56.987365  2.417805
H  22.829119  57.747265  2.402389
C  21.173141  56.977730  3.325446
C  20.419022  55.829208  3.389039
H  19.700874  55.762403  4.001841
C  20.715145  54.777039  2.557195
H  20.221178  53.970247  2.595094
C  21.751256  54.925421  1.661759
H  21.916982  54.214340  1.053454
C  23.888997  59.383973  64.164342
C  26.816828  55.383417  63.108960
H  26.753877  54.734643  63.798202
C  27.928736  55.418104  62.376039
H  28.616692  54.779608  62.519925
C  28.073907  56.411819  61.383608
H  28.867209  56.481835  60.869086
C  27.005679  57.280277  61.187692
C  25.889274  57.165938  62.000264
H  25.186543  57.792230  61.883999
C  27.067987  58.320884  60.173421
N  23.439352  63.232292  5.783077
N  14.575564  56.960386  9.336557
N  17.187359  57.767820  8.139859
N  20.614296  60.182414  5.817764
N  20.004064  58.031184  5.124026
N  21.681882  59.241371  3.951095
N  22.529784  55.995577  1.598167
N  25.747957  56.236458  62.929102
N  23.955159  58.263072  0.065520
N  26.116024  59.256145  60.179844
S  13.478430  58.816778  11.085034
S  23.817696  61.039309  64.004396
C  22.588880  30.076112  37.892226
H  22.116110  29.875699  38.695164
C  22.360846  29.280240  36.789312
C  23.007050  29.579575  35.609957
H  22.906201  29.027797  34.841064
C  23.806776  30.703045  35.575270
H  24.197324  30.986964  34.757559
C  24.038022  31.411557  36.723792
H  24.646969  32.143194  36.691032
C  14.067465  25.597005  42.175416
C  17.133402  26.647247  41.153437
H  16.469854  26.593290  41.829832
C  17.959464  27.730249  41.159861
H  17.902294  28.379023  41.849103
C  18.878024  27.862574  40.143663
H  19.469628  28.603845  40.114758
C  18.919777  26.879778  39.153802
C  18.059670  25.821828  39.257220
H  18.082152  25.167273  38.573118
C  19.901930  26.976131  38.031616
C  20.921339  26.013248  36.278643
C  21.494958  28.100885  36.918424
C  22.263209  24.869865  34.535305
H  22.829119  25.629765  34.519889
C  21.173141  24.860230  35.442946
C  20.419022  23.711708  35.506539
H  19.700874  23.644903  36.119340
C  20.715145  22.659539  34.674695
H  20.221178  21.852747  34.712594
C  21.751256  22.807921  33.779259
H  21.916982  22.096840  33.170954
C  23.888997  27.266473  32.046841
C  26.816828  23.265917  30.991460
H  26.753877  22.617144  31.680702
C  27.928736  23.300604  30.258539
H  28.616692  22.662108  30.402425
C  28.073907  24.294319  29.266108
H  28.867209  24.364336  28.751586
C  27.005679  25.162777  29.070192
C  25.889274  25.048438  29.882764
H  25.186543  25.674729  29.766499
C  27.067987  26.203384  28.055921
N  23.439352  31.114792  37.900577
N  14.575564  24.842886  41.454057
N  17.187359  25.650320  40.257359
N  20.614296  28.064914  37.935264
N  20.004064  25.913684  37.241526
N  21.681882  27.123871  36.068595
N  22.529784  23.878077  33.715667
N  25.747957  24.118958  30.811602
N  23.955159  26.145572  32.183020
N  26.116024  27.138645  28.062344
S  13.478430  26.699278  43.202534
S  23.817696  28.921809  31.886896
C  54.706380  62.193612  37.892226
H  54.233611  61.993198  38.695164
C  54.478346  61.397740  36.789312
C  55.124550  61.697075  35.609957
H  55.023701  61.145297  34.841064
C  55.924276  62.820545  35.575270
H  56.314825  63.104464  34.757559
C  56.155522  63.529057  36.723792
H  56.764470  0.025694  36.691032
C  46.184965  57.714505  42.175416
C  49.250902  58.764747  41.153437
H  48.587354  58.710790  41.829832
C  50.076964  59.847749  41.159861
H  50.019794  60.496523  41.849103
C  50.995524  59.980074  40.143663
H  51.587128  60.721345  40.114758
C  51.037277  58.997278  39.153802
C  50.177170  57.939328  39.257220
H  50.199652  57.284773  38.573118
C  52.019430  59.093631  38.031616
C  53.038840  58.130748  36.278643
C  53.612458  60.218385  36.918424
C  54.380709  56.987365  34.535305
H  54.946619  57.747265  34.519889
C  53.290641  56.977730  35.442946
C  52.536522  55.829208  35.506539
H  51.818374  55.762403  36.119340
C  52.832645  54.777039  34.674695
H  52.338678  53.970247  34.712594
C  53.868756  54.925421  33.779259
H  54.034482  54.214340  33.170954
C  56.006496  59.383973  32.046841
C  58.934328  55.383417  30.991460
H  58.871378  54.734643  31.680702
C  60.046236  55.418104  30.258539
H  60.734192  54.779608  30.402425
C  60.191407  56.411819  29.266108
H  60.984709  56.481835  28.751586
C  59.123179  57.280277  29.070192
C  58.006774  57.165938  29.882764
H  57.304043  57.792230  29.766499
C  59.185487  58.320884  28.055921
N  55.556852  63.232292  37.900577
N  46.693064  56.960386  41.454057
N  49.304859  57.767820  40.257359
N  52.731796  60.182414  37.935264
N  52.121564  58.031184  37.241526
N  53.799382  59.241371  36.068595
N  54.647284  55.995577  33.715667
N  57.865457  56.236458  30.811602
N  56.072659  58.263072  32.183020
N  58.233524  59.256145  28.062344
S  45.595930  58.816778  43.202534
S  55.935196  61.039309  31.886896
C  54.706380  30.076112  5.774726
H  54.233611  29.875699  6.577664
C  54.478346  29.280240  4.671812
C  55.124550  29.579575  3.492457
H  55.023701  29.027797  2.723564
C  55.924276  30.703045  3.457770
H  56.314825  30.986964  2.640058
C  56.155522  31.411557  4.606292
H  56.764470  32.143194  4.573532
C  46.184965  25.597005  10.057916
C  49.250902  26.647247  9.035937
H  48.587354  26.593290  9.712332
C  50.076964  27.730249  9.042361
H  50.019794  28.379023  9.731602
C  50.995524  27.862574  8.026163
H  51.587128  28.603845  7.997257
C  51.037277  26.879778  7.036302
C  50.177170  25.821828  7.139720
H  50.199652  25.167273  6.455618
C  52.019430  26.976131  5.914116
C  53.038840  26.013248  4.161143
C  53.612458  28.100885  4.800924
C  54.380709  24.869865  2.417805
H  54.946619  25.629765  2.402389
C  53.290641  24.860230  3.325446
C  52.536522  23.711708  3.389039
H  51.818374  23.644903  4.001841
C  52.832645  22.659539  2.557195
H  52.338678  21.852747  2.595094
C  53.868756  22.807921  1.661759
H  54.034482  22.096840  1.053454
C  56.006496  27.266473  64.164342
C  58.934328  23.265917  63.108960
H  58.871378  22.617144  63.798202
C  60.046236  23.300604  62.376039
H  60.734192  22.662108  62.519925
C  60.191407  24.294319  61.383608
H  60.984709  24.364336  60.869086
C  59.123179  25.162777  61.187692
C  58.006774  25.048438  62.000264
H  57.304043  25.674729  61.883999
C  59.185487  26.203384  60.173421
N  55.556852  31.114792  5.783077
N  46.693064  24.842886  9.336557
N  49.304859  25.650320  8.139859
N  52.731796  28.064914  5.817764
N  52.121564  25.913684  5.124026
N  53.799382  27.123871  3.951095
N  54.647284  23.878077  1.598167
N  57.865457  24.118958  62.929102
N  56.072659  26.145572  0.065520
N  58.233524  27.138645  60.179844
S  45.595930  26.699278  11.085034
S  55.935196  28.921809  64.004396
C  42.401524  57.704870  30.076112
H  41.598586  58.177639  29.875699
C  43.504438  57.932904  29.280240
C  44.683793  57.286700  29.579575
H  45.452686  57.387549  29.027797
C  44.718480  56.486974  30.703045
H  45.536192  56.096425  30.986964
C  43.569958  56.255728  31.411557
H  43.602718  55.646780  32.143194
C  38.118334  1.991285  25.597005
C  39.140313  63.160348  26.647247
H  38.463918  63.823896  26.593290
C  39.133889  62.334286  27.730249
H  38.444648  62.391455  28.379023
C  40.150087  61.415726  27.862574
H  40.178992  60.824121  28.603845
C  41.139948  61.373973  26.879778
C  41.036530  62.234080  25.821828
H  41.720633  62.211598  25.167273
C  42.262134  60.391820  26.976131
C  44.015107  59.372411  26.013248
C  43.375326  58.798792  28.100885
C  45.758445  58.030541  24.869865
H  45.773861  57.464631  25.629765
C  44.850804  59.120609  24.860230
C  44.787211  59.874728  23.711708
H  44.174409  60.592875  23.644903
C  45.619055  59.578605  22.659539
H  45.581156  60.072572  21.852747
C  46.514491  58.542494  22.807921
H  47.122796  58.376768  22.096840
C  48.246908  56.404753  27.266473
C  49.302290  53.476922  23.265917
H  48.613048  53.539873  22.617144
C  50.035211  52.365014  23.300604
H  49.891324  51.677057  22.662108
C  51.027642  52.219843  24.294319
H  51.542164  51.426541  24.364336
C  51.223558  53.288071  25.162777
C  50.410986  54.404476  25.048438
H  50.527251  55.107206  25.674729
C  52.237829  53.225763  26.203384
N  42.393173  56.854399  31.114792
N  38.839693  1.483186  24.842886
N  40.036391  63.106391  25.650320
N  42.358486  59.679454  28.064914
N  43.052224  60.289686  25.913684
N  44.225155  58.611868  27.123871
N  46.578083  57.763966  23.878077
N  49.482148  54.545793  24.118958
N  48.110730  56.338591  26.145572
N  52.231406  54.177726  27.138645
S  37.091216  2.580320  26.699278
S  48.406854  56.476054  28.921809
C  42.401524  25.587370  62.193612
H  41.598586  26.060140  61.993198
C  43.504438  25.815404  61.397740
C  44.683793  25.169200  61.697075
H  45.452686  25.270049  61.145297
C  44.718480  24.369474  62.820545
H  45.536192  23.978926  63.104464
C  43.569958  24.138228  63.529057
H  43.602718  23.529281  0.025694
C  38.118334  34.108785  57.714505
C  39.140313  31.042848  58.764747
H  38.463918  31.706396  58.710790
C  39.133889  30.216786  59.847749
H  38.444648  30.273955  60.496523
C  40.150087  29.298226  59.980074
H  40.178992  28.706622  60.721345
C  41.139948  29.256473  58.997278
C  41.036530  30.116580  57.939328
H  41.720633  30.094098  57.284773
C  42.262134  28.274320  59.093631
C  44.015107  27.254911  58.130748
C  43.375326  26.681292  60.218385
C  45.758445  25.913041  56.987365
H  45.773861  25.347131  57.747265
C  44.850804  27.003109  56.977730
C  44.787211  27.757228  55.829208
H  44.174409  28.475376  55.762403
C  45.619055  27.461105  54.777039
H  45.581156  27.955072  53.970247
C  46.514491  26.424994  54.925421
H  47.122796  26.259268  54.214340
C  48.246908  24.287253  59.383973
C  49.302290  21.359422  55.383417
H  48.613048  21.422373  54.734643
C  50.035211  20.247514  55.418104
H  49.891324  19.559558  54.779608
C  51.027642  20.102343  56.411819
H  51.542164  19.309041  56.481835
C  51.223558  21.170571  57.280277
C  50.410986  22.286976  57.165938
H  50.527251  22.989707  57.792230
C  52.237829  21.108263  58.320884
N  42.393173  24.736898  63.232292
N  38.839693  33.600686  56.960386
N  40.036391  30.988891  57.767820
N  42.358486  27.561954  60.182414
N  43.052224  28.172186  58.031184
N  44.225155  26.494368  59.241371
N  46.578083  25.646466  55.995577
N  49.482148  22.428293  56.236458
N  48.110730  24.221091  58.263072
N  52.231406  22.060226  59.256145
S  37.091216  34.697820  58.816778
S  48.406854  24.358554  61.039309
C  10.284023  57.704870  62.193612
H  9.481086  58.177639  61.993198
C  11.386938  57.932904  61.397740
C  12.566293  57.286700  61.697075
H  13.335186  57.387549  61.145297
C  12.600980  56.486974  62.820545
H  13.418691  56.096425  63.104464
C  11.452458  56.255728  63.529057
H  11.485218  55.646780  0.025694
C  6.000834  1.991285  57.714505
C  7.022813  63.160348  58.764747
H  6.346418  63.823896  58.710790
C  7.016389  62.334286  59.847749
H  6.327148  62.391455  60.496523
C  8.032587  61.415726  59.980074
H  8.061492  60.824121  60.721345
C  9.022448  61.373973  58.997278
C  8.919030  62.234080  57.939328
H  9.603132  62.211598  57.284773
C  10.144634  60.391820  59.093631
C  11.897607  59.372411  58.130748
C  11.257826  58.798792  60.218385
C  13.640945  58.030541  56.987365
H  13.656361  57.464631  57.747265
C  12.733304  59.120609  56.977730
C  12.669711  59.874728  55.829208
H  12.056909  60.592875  55.762403
C  13.501555  59.578605  54.777039
H  13.463656  60.072572  53.970247
C  14.396991  58.542494  54.925421
H  15.005296  58.376768  54.214340
C  16.129409  56.404753  59.383973
C  17.184790  53.476922  55.383417
H  16.495548  53.539873  54.734643
C  17.917711  52.365014  55.418104
H  17.773824  51.677057  54.779608
C  18.910142  52.219843  56.411819
H  19.424664  51.426541  56.481835
C  19.106058  53.288071  57.280277
C  18.293486  54.404476  57.165938
H  18.409751  55.107206  57.792230
C  20.120329  53.225763  58.320884
N  10.275673  56.854399  63.232292
N  6.722193  1.483186  56.960386
N  7.918891  63.106391  57.767820
N  10.240986  59.679454  60.182414
N  10.934724  60.289686  58.031184
N  12.107655  58.611868  59.241371
N  14.460583  57.763966  55.995577
N  17.364648  54.545793  56.236458
N  15.993230  56.338591  58.263072
N  20.113906  54.177726  59.256145
S  4.973716  2.580320  58.816778
S  16.289354  56.476054  61.039309
C  10.284023  25.587370  30.076112
H  9.481086  26.060140  29.875699
C  11.386938  25.815404  29.280240
C  12.566293  25.169200  29.579575
H  13.335186  25.270049  29.027797
C  12.600980  24.369474  30.703045
H  13.418691  23.978926  30.986964
C  11.452458  24.138228  31.411557
H  11.485218  23.529281  32.143194
C  6.000834  34.108785  25.597005
C  7.022813  31.042848  26.647247
H  6.346418  31.706396  26.593290
C  7.016389  30.216786  27.730249
H  6.327148  30.273955  28.379023
C  8.032587  29.298226  27.862574
H  8.061492  28.706622  28.603845
C  9.022448  29.256473  26.879778
C  8.919030  30.116580  25.821828
H  9.603132  30.094098  25.167273
C  10.144634  28.274320  26.976131
C  11.897607  27.254911  26.013248
C  11.257826  26.681292  28.100885
C  13.640945  25.913041  24.869865
H  13.656361  25.347131  25.629765
C  12.733304  27.003109  24.860230
C  12.669711  27.757228  23.711708
H  12.056909  28.475376  23.644903
C  13.501555  27.461105  22.659539
H  13.463656  27.955072  21.852747
C  14.396991  26.424994  22.807921
H  15.005296  26.259268  22.096840
C  16.129409  24.287253  27.266473
C  17.184790  21.359422  23.265917
H  16.495548  21.422373  22.617144
C  17.917711  20.247514  23.300604
H  17.773824  19.559558  22.662108
C  18.910142  20.102343  24.294319
H  19.424664  19.309041  24.364336
C  19.106058  21.170571  25.162777
C  18.293486  22.286976  25.048438
H  18.409751  22.989707  25.674729
C  20.120329  21.108263  26.203384
N  10.275673  24.736898  31.114792
N  6.722193  33.600686  24.842886
N  7.918891  30.988891  25.650320
N  10.240986  27.561954  28.064914
N  10.934724  28.172186  25.913684
N  12.107655  26.494368  27.123871
N  14.460583  25.646466  23.878077
N  17.364648  22.428293  24.118958
N  15.993230  24.221091  26.145572
N  20.113906  22.060226  27.138645
S  4.973716  34.697820  26.699278
S  16.289354  24.358554  28.921809
C  37.892226  25.587370  18.100138
H  38.695164  26.060140  18.300551
C  36.789312  25.815404  18.896010
C  35.609957  25.169200  18.596675
H  34.841064  25.270049  19.148453
C  35.575270  24.369474  17.473205
H  34.757559  23.978926  17.189286
C  36.723792  24.138228  16.764693
H  36.691032  23.529281  16.033056
C  42.175416  34.108785  22.579245
C  41.153437  31.042848  21.529003
H  41.829832  31.706396  21.582960
C  41.159861  30.216786  20.446001
H  41.849103  30.273955  19.797227
C  40.143663  29.298226  20.313676
H  40.114758  28.706622  19.572405
C  39.153802  29.256473  21.296472
C  39.257220  30.116580  22.354422
H  38.573118  30.094098  23.008977
C  38.031616  28.274320  21.200119
C  36.278643  27.254911  22.163002
C  36.918424  26.681292  20.075365
C  34.535305  25.913041  23.306385
H  34.519889  25.347131  22.546485
C  35.442946  27.003109  23.316020
C  35.506539  27.757228  24.464542
H  36.119340  28.475376  24.531347
C  34.674695  27.461105  25.516711
H  34.712594  27.955072  26.323503
C  33.779259  26.424994  25.368329
H  33.170954  26.259268  26.079410
C  32.046841  24.287253  20.909777
C  30.991460  21.359422  24.910333
H  31.680702  21.422373  25.559106
C  30.258539  20.247514  24.875646
H  30.402425  19.559558  25.514142
C  29.266108  20.102343  23.881931
H  28.751586  19.309041  23.811914
C  29.070192  21.170571  23.013473
C  29.882764  22.286976  23.127812
H  29.766499  22.989707  22.501521
C  28.055921  21.108263  21.972866
N  37.900577  24.736898  17.061458
N  41.454057  33.600686  23.333364
N  40.257359  30.988891  22.525930
N  37.935264  27.561954  20.111336
N  37.241526  28.172186  22.262566
N  36.068595  26.494368  21.052379
N  33.715667  25.646466  24.298173
N  30.811602  22.428293  24.057292
N  32.183020  24.221091  22.030678
N  28.062344  22.060226  21.037605
S  43.202534  34.697820  21.476972
S  31.886896  24.358554  19.254441
C  37.892226  57.704870  50.217638
H  38.695164  58.177639  50.418052
C  36.789312  57.932904  51.013510
C  35.609957  57.286700  50.714175
H  34.841064  57.387549  51.265954
C  35.575270  56.486974  49.590705
H  34.757559  56.096425  49.306786
C  36.723792  56.255728  48.882193
H  36.691032  55.646780  48.150556
C  42.175416  1.991285  54.696745
C  41.153437  63.160348  53.646503
H  41.829832  63.823896  53.700460
C  41.159861  62.334286  52.563501
H  41.849103  62.391455  51.914727
C  40.143663  61.415726  52.431176
H  40.114758  60.824121  51.689904
C  39.153802  61.373973  53.413972
C  39.257220  62.234080  54.471922
H  38.573118  62.211598  55.126477
C  38.031616  60.391820  53.317619
C  36.278643  59.372411  54.280502
C  36.918424  58.798792  52.192865
C  34.535305  58.030541  55.423885
H  34.519889  57.464631  54.663985
C  35.442946  59.120609  55.433520
C  35.506539  59.874728  56.582042
H  36.119340  60.592875  56.648846
C  34.674695  59.578605  57.634211
H  34.712594  60.072572  58.441003
C  33.779259  58.542494  57.485829
H  33.170954  58.376768  58.196910
C  32.046841  56.404753  53.027277
C  30.991460  53.476922  57.027833
H  31.680702  53.539873  57.676606
C  30.258539  52.365014  56.993146
H  30.402425  51.677057  57.631642
C  29.266108  52.219843  55.999431
H  28.751586  51.426541  55.929415
C  29.070192  53.288071  55.130973
C  29.882764  54.404476  55.245312
H  29.766499  55.107206  54.619020
C  28.055921  53.225763  54.090366
N  37.900577  56.854399  49.178958
N  41.454057  1.483186  55.450864
N  40.257359  63.106391  54.643430
N  37.935264  59.679454  52.228836
N  37.241526  60.289686  54.380066
N  36.068595  58.611868  53.169879
N  33.715667  57.763966  56.415673
N  30.811602  54.545793  56.174792
N  32.183020  56.338591  54.148178
N  28.062344  54.177726  53.155105
S  43.202534  2.580320  53.594472
S  31.886896  56.476054  51.371941
C  5.774726  25.587370  50.217638
H  6.577664  26.060140  50.418052
C  4.671812  25.815404  51.013510
C  3.492457  25.169200  50.714175
H  2.723564  25.270049  51.265954
C  3.457770  24.369474  49.590705
H  2.640058  23.978926  49.306786
C  4.606292  24.138228  48.882193
H  4.573532  23.529281  48.150556
C  10.057916  34.108785  54.696745
C  9.035937  31.042848  53.646503
H  9.712332  31.706396  53.700460
C  9.042361  30.216786  52.563501
H  9.731602  30.273955  51.914727
C  8.026163  29.298226  52.431176
H  7.997257  28.706622  51.689904
C  7.036302  29.256473  53.413972
C  7.139720  30.116580  54.471922
H  6.455618  30.094098  55.126477
C  5.914116  28.274320  53.317619
C  4.161143  27.254911  54.280502
C  4.800924  26.681292  52.192865
C  2.417805  25.913041  55.423885
H  2.402389  25.347131  54.663985
C  3.325446  27.003109  55.433520
C  3.389039  27.757228  56.582042
H  4.001841  28.475376  56.648846
C  2.557195  27.461105  57.634211
H  2.595094  27.955072  58.441003
C  1.661759  26.424994  57.485829
H  1.053454  26.259268  58.196910
C  64.164342  24.287253  53.027277
C  63.108960  21.359422  57.027833
H  63.798202  21.422373  57.676606
C  62.376039  20.247514  56.993146
H  62.519925  19.559558  57.631642
C  61.383608  20.102343  55.999431
H  60.869086  19.309041  55.929415
C  61.187692  21.170571  55.130973
C  62.000264  22.286976  55.245312
H  61.883999  22.989707  54.619020
C  60.173421  21.108263  54.090366
N  5.783077  24.736898  49.178958
N  9.336557  33.600686  55.450864
N  8.139859  30.988891  54.643430
N  5.817764  27.561954  52.228836
N  5.124026  28.172186  54.380066
N  3.951095  26.494368  53.169879
N  1.598167  25.646466  56.415673
N  62.929102  22.428293  56.174792
N  0.065520  24.221091  54.148178
N  60.179844  22.060226  53.155105
S  11.085034  34.697820  53.594472
S  64.004396  24.358554  51.371941
C  5.774726  57.704870  18.100138
H  6.577664  58.177639  18.300551
C  4.671812  57.932904  18.896010
C  3.492457  57.286700  18.596675
H  2.723564  57.387549  19.148453
C  3.457770  56.486974  17.473205
H  2.640058  56.096425  17.189286
C  4.606292  56.255728  16.764693
H  4.573532  55.646780  16.033056
C  10.057916  1.991285  22.579245
C  9.035937  63.160348  21.529003
H  9.712332  63.823896  21.582960
C  9.042361  62.334286  20.446001
H  9.731602  62.391455  19.797227
C  8.026163  61.415726  20.313676
H  7.997257  60.824121  19.572405
C  7.036302  61.373973  21.296472
C  7.139720  62.234080  22.354422
H  6.455618  62.211598  23.008977
C  5.914116  60.391820  21.200119
C  4.161143  59.372411  22.163002
C  4.800924  58.798792  20.075365
C  2.417805  58.030541  23.306385
H  2.402389  57.464631  22.546485
C  3.325446  59.120609  23.316020
C  3.389039  59.874728  24.464542
H  4.001841  60.592875  24.531347
C  2.557195  59.578605  25.516711
H  2.595094  60.072572  26.323503
C  1.661759  58.542494  25.368329
H  1.053454  58.376768  26.079410
C  64.164342  56.404753  20.909777
C  63.108960  53.476922  24.910333
H  63.798202  53.539873  25.559106
C  62.376039  52.365014  24.875646
H  62.519925  51.677057  25.514142
C  61.383608  52.219843  23.881931
H  60.869086  51.426541  23.811914
C  61.187692  53.288071  23.013473
C  62.000264  54.404476  23.127812
H  61.883999  55.107206  22.501521
C  60.173421  53.225763  21.972866
N  5.783077  56.854399  17.061458
N  9.336557  1.483186  23.333364
N  8.139859  63.106391  22.525930
N  5.817764  59.679454  20.111336
N  5.124026  60.289686  22.262566
N  3.951095  58.611868  21.052379
N  1.598167  57.763966  24.298173
N  62.929102  54.545793  24.057292
N  0.065520  56.338591  22.030678
N  60.179844  54.177726  21.037605
S  11.085034  2.580320  21.476972
S  64.004396  56.476054  19.254441
C  10.284023  54.706380  50.217638
H  9.481086  54.233611  50.418052
C  11.386938  54.478346  51.013510
C  12.566293  55.124550  50.714175
H  13.335186  55.023701  51.265954
C  12.600980  55.924276  49.590705
H  13.418691  56.314825  49.306786
C  11.452458  56.155522  48.882193
H  11.485218  56.764470  48.150556
C  6.000834  46.184965  54.696745
C  7.022813  49.250902  53.646503
H  6.346418  48.587354  53.700460
C  7.016389  50.076964  52.563501
H  6.327148  50.019794  51.914727
C  8.032587  50.995524  52.431176
H  8.061492  51.587128  51.689904
C  9.022448  51.037277  53.413972
C  8.919030  50.177170  54.471922
H  9.603132  50.199652  55.126477
C  10.144634  52.019430  53.317619
C  11.897607  53.038840  54.280502
C  11.257826  53.612458  52.192865
C  13.640945  54.380709  55.423885
H  13.656361  54.946619  54.663985
C  12.733304  53.290641  55.433520
C  12.669711  52.536522  56.582042
H  12.056909  51.818374  56.648846
C  13.501555  52.832645  57.634211
H  13.463656  52.338678  58.441003
C  14.396991  53.868756  57.485829
H  15.005296  54.034482  58.196910
C  16.129409  56.006496  53.027277
C  17.184790  58.934328  57.027833
H  16.495548  58.871378  57.676606
C  17.917711  60.046236  56.993146
H  17.773824  60.734192  57.631642
C  18.910142  60.191407  55.999431
H  19.424664  60.984709  55.929415
C  19.106058  59.123179  55.130973
C  18.293486  58.006774  55.245312
H  18.409751  57.304043  54.619020
C  20.120329  59.185487  54.090366
N  10.275673  55.556852  49.178958
N  6.722193  46.693064  55.450864
N  7.918891  49.304859  54.643430
N  10.240986  52.731796  52.228836
N  10.934724  52.121564  54.380066
N  12.107655  53.799382  53.169879
N  14.460583  54.647284  56.415673
N  17.364648  57.865457  56.174792
N  15.993230  56.072659  54.148178
N  20.113906  58.233524  53.155105
S  4.973716  45.595930  53.594472
S  16.289354  55.935196  51.371941
C  10.284023  22.588880  18.100138
H  9.481086  22.116110  18.300551
C  11.386938  22.360846  18.896010
C  12.566293  23.007050  18.596675
H  13.335186  22.906201  19.148453
C  12.600980  23.806776  17.473205
H  13.418691  24.197324  17.189286
C  11.452458  24.038022  16.764693
H  11.485218  24.646969  16.033056
C  6.000834  14.067465  22.579245
C  7.022813  17.133402  21.529003
H  6.346418  16.469854  21.582960
C  7.016389  17.959464  20.446001
H  6.327148  17.902294  19.797227
C  8.032587  18.878024  20.313676
H  8.061492  19.469628  19.572405
C  9.022448  18.919777  21.296472
C  8.919030  18.059670  22.354422
H  9.603132  18.082152  23.008977
C  10.144634  19.901930  21.200119
C  11.897607  20.921339  22.163002
C  11.257826  21.494958  20.075365
C  13.640945  22.263209  23.306385
H  13.656361  22.829119  22.546485
C  12.733304  21.173141  23.316020
C  12.669711  20.419022  24.464542
H  12.056909  19.700874  24.531347
C  13.501555  20.715145  25.516711
H  13.463656  20.221178  26.323503
C  14.396991  21.751256  25.368329
H  15.005296  21.916982  26.079410
C  16.129409  23.888997  20.909777
C  17.184790  26.816828  24.910333
H  16.495548  26.753877  25.559106
C  17.917711  27.928736  24.875646
H  17.773824  28.616692  25.514142
C  18.910142  28.073907  23.881931
H  19.424664  28.867209  23.811914
C  19.106058  27.005679  23.013473
C  18.293486  25.889274  23.127812
H  18.409751  25.186543  22.501521
C  20.120329  27.067987  21.972866
N  10.275673  23.439352  17.061458
N  6.722193  14.575564  23.333364
N  7.918891  17.187359  22.525930
N  10.240986  20.614296  20.111336
N  10.934724  20.004064  22.262566
N  12.107655  21.681882  21.052379
N  14.460583  22.529784  24.298173
N  17.364648  25.747957  24.057292
N  15.993230  23.955159  22.030678
N  20.113906  26.116024  21.037605
S  4.973716  13.478430  21.476972
S  16.289354  23.817696  19.254441
C  42.401524  54.706380  18.100138
H  41.598586  54.233611  18.300551
C  43.504438  54.478346  18.896010
C  44.683793  55.124550  18.596675
H  45.452686  55.023701  19.148453
C  44.718480  55.924276  17.473205
H  45.536192  56.314825  17.189286
C  43.569958  56.155522  16.764693
H  43.602718  56.764470  16.033056
C  38.118334  46.184965  22.579245
C  39.140313  49.250902  21.529003
H  38.463918  48.587354  21.582960
C  39.133889  50.076964  20.446001
H  38.444648  50.019794  19.797227
C  40.150087  50.995524  20.313676
H  40.178992  51.587128  19.572405
C  41.139948  51.037277  21.296472
C  41.036530  50.177170  22.354422
H  41.720633  50.199652  23.008977
C  42.262134  52.019430  21.200119
C  44.015107  53.038840  22.163002
C  43.375326  53.612458  20.075365
C  45.758445  54.380709  23.306385
H  45.773861  54.946619  22.546485
C  44.850804  53.290641  23.316020
C  44.787211  52.536522  24.464542
H  44.174409  51.818374  24.531347
C  45.619055  52.832645  25.516711
H  45.581156  52.338678  26.323503
C  46.514491  53.868756  25.368329
H  47.122796  54.034482  26.079410
C  48.246908  56.006496  20.909777
C  49.302290  58.934328  24.910333
H  48.613048  58.871378  25.559106
C  50.035211  60.046236  24.875646
H  49.891324  60.734192  25.514142
C  51.027642  60.191407  23.881931
H  51.542164  60.984709  23.811914
C  51.223558  59.123179  23.013473
C  50.410986  58.006774  23.127812
H  50.527251  57.304043  22.501521
C  52.237829  59.185487  21.972866
N  42.393173  55.556852  17.061458
N  38.839693  46.693064  23.333364
N  40.036391  49.304859  22.525930
N  42.358486  52.731796  20.111336
N  43.052224  52.121564  22.262566
N  44.225155  53.799382  21.052379
N  46.578083  54.647284  24.298173
N  49.482148  57.865457  24.057292
N  48.110730  56.072659  22.030678
N  52.231406  58.233524  21.037605
S  37.091216  45.595930  21.476972
S  48.406854  55.935196  19.254441
C  42.401524  22.588880  50.217638
H  41.598586  22.116110  50.418052
C  43.504438  22.360846  51.013510
C  44.683793  23.007050  50.714175
H  45.452686  22.906201  51.265954
C  44.718480  23.806776  49.590705
H  45.536192  24.197324  49.306786
C  43.569958  24.038022  48.882193
H  43.602718  24.646969  48.150556
C  38.118334  14.067465  54.696745
C  39.140313  17.133402  53.646503
H  38.463918  16.469854  53.700460
C  39.133889  17.959464  52.563501
H  38.444648  17.902294  51.914727
C  40.150087  18.878024  52.431176
H  40.178992  19.469628  51.689904
C  41.139948  18.919777  53.413972
C  41.036530  18.059670  54.471922
H  41.720633  18.082152  55.126477
C  42.262134  19.901930  53.317619
C  44.015107  20.921339  54.280502
C  43.375326  21.494958  52.192865
C  45.758445  22.263209  55.423885
H  45.773861  22.829119  54.663985
C  44.850804  21.173141  55.433520
C  44.787211  20.419022  56.582042
H  44.174409  19.700874  56.648846
C  45.619055  20.715145  57.634211
H  45.581156  20.221178  58.441003
C  46.514491  21.751256  57.485829
H  47.122796  21.916982  58.196910
C  48.246908  23.888997  53.027277
C  49.302290  26.816828  57.027833
H  48.613048  26.753877  57.676606
C  50.035211  27.928736  56.993146
H  49.891324  28.616692  57.631642
C  51.027642  28.073907  55.999431
H  51.542164  28.867209  55.929415
C  51.223558  27.005679  55.130973
C  50.410986  25.889274  55.245312
H  50.527251  25.186543  54.619020
C  52.237829  27.067987  54.090366
N  42.393173  23.439352  49.178958
N  38.839693  14.575564  55.450864
N  40.036391  17.187359  54.643430
N  42.358486  20.614296  52.228836
N  43.052224  20.004064  54.380066
N  44.225155  21.681882  53.169879
N  46.578083  22.529784  56.415673
N  49.482148  25.747957  56.174792
N  48.110730  23.955159  54.148178
N  52.231406  26.116024  53.155105
S  37.091216  13.478430  53.594472
S  48.406854  23.817696  51.371941
C  5.774726  22.588880  62.193612
H  6.577664  22.116110  61.993198
C  4.671812  22.360846  61.397740
C  3.492457  23.007050  61.697075
H  2.723564  22.906201  61.145297
C  3.457770  23.806776  62.820545
H  2.640058  24.197324  63.104464
C  4.606292  24.038022  63.529057
H  4.573532  24.646969  0.025694
C  10.057916  14.067465  57.714505
C  9.035937  17.133402  58.764747
H  9.712332  16.469854  58.710790
C  9.042361  17.959464  59.847749
H  9.731602  17.902294  60.496523
C  8.026163  18.878024  59.980074
H  7.997257  19.469628  60.721345
C  7.036302  18.919777  58.997278
C  7.139720  18.059670  57.939328
H  6.455618  18.082152  57.284773
C  5.914116  19.901930  59.093631
C  4.161143  20.921339  58.130748
C  4.800924  21.494958  60.218385
C  2.417805  22.263209  56.987365
H  2.402389  22.829119  57.747265
C  3.325446  21.173141  56.977730
C  3.389039  20.419022  55.829208
H  4.001841  19.700874  55.762403
C  2.557195  20.715145  54.777039
H  2.595094  20.221178  53.970247
C  1.661759  21.751256  54.925421
H  1.053454  21.916982  54.214340
C  64.164342  23.888997  59.383973
C  63.108960  26.816828  55.383417
H  63.798202  26.753877  54.734643
C  62.376039  27.928736  55.418104
H  62.519925  28.616692  54.779608
C  61.383608  28.073907  56.411819
H  60.869086  28.867209  56.481835
C  61.187692  27.005679  57.280277
C  62.000264  25.889274  57.165938
H  61.883999  25.186543  57.792230
C  60.173421  27.067987  58.320884
N  5.783077  23.439352  63.232292
N  9.336557  14.575564  56.960386
N  8.139859  17.187359  57.767820
N  5.817764  20.614296  60.182414
N  5.124026  20.004064  58.031184
N  3.951095  21.681882  59.241371
N  1.598167  22.529784  55.995577
N  62.929102  25.747957  56.236458
N  0.065520  23.955159  58.263072
N  60.179844  26.116024  59.256145
S  11.085034  13.478430  58.816778
S  64.004396  23.817696  61.039309
C  5.774726  54.706380  30.076112
H  6.577664  54.233611  29.875699
C  4.671812  54.478346  29.280240
C  3.492457  55.124550  29.579575
H  2.723564  55.023701  29.027797
C  3.457770  55.924276  30.703045
H  2.640058  56.314825  30.986964
C  4.606292  56.155522  31.411557
H  4.573532  56.764470  32.143194
C  10.057916  46.184965  25.597005
C  9.035937  49.250902  26.647247
H  9.712332  48.587354  26.593290
C  9.042361  50.076964  27.730249
H  9.731602  50.019794  28.379023
C  8.026163  50.995524  27.862574
H  7.997257  51.587128  28.603845
C  7.036302  51.037277  26.879778
C  7.139720  50.177170  25.821828
H  6.455618  50.199652  25.167273
C  5.914116  52.019430  26.976131
C  4.161143  53.038840  26.013248
C  4.800924  53.612458  28.100885
C  2.417805  54.380709  24.869865
H  2.402389  54.946619  25.629765
C  3.325446  53.290641  24.860230
C  3.389039  52.536522  23.711708
H  4.001841  51.818374  23.644903
C  2.557195  52.832645  22.659539
H  2.595094  52.338678  21.852747
C  1.661759  53.868756  22.807921
H  1.053454  54.034482  22.096840
C  64.164342  56.006496  27.266473
C  63.108960  58.934328  23.265917
H  63.798202  58.871378  22.617144
C  62.376039  60.046236  23.300604
H  62.519925  60.734192  22.662108
C  61.383608  60.191407  24.294319
H  60.869086  60.984709  24.364336
C  61.187692  59.123179  25.162777
C  62.000264  58.006774  25.048438
H  61.883999  57.304043  25.674729
C  60.173421  59.185487  26.203384
N  5.783077  55.556852  31.114792
N  9.336557  46.693064  24.842886
N  8.139859  49.304859  25.650320
N  5.817764  52.731796  28.064914
N  5.124026  52.121564  25.913684
N  3.951095  53.799382  27.123871
N  1.598167  54.647284  23.878077
N  62.929102  57.865457  24.118958
N  0.065520  56.072659  26.145572
N  60.179844  58.233524  27.138645
S  11.085034  45.595930  26.699278
S  64.004396  55.935196  28.921809
C  37.892226  22.588880  30.076112
H  38.695164  22.116110  29.875699
C  36.789312  22.360846  29.280240
C  35.609957  23.007050  29.579575
H  34.841064  22.906201  29.027797
C  35.575270  23.806776  30.703045
H  34.757559  24.197324  30.986964
C  36.723792  24.038022  31.411557
H  36.691032  24.646969  32.143194
C  42.175416  14.067465  25.597005
C  41.153437  17.133402  26.647247
H  41.829832  16.469854  26.593290
C  41.159861  17.959464  27.730249
H  41.849103  17.902294  28.379023
C  40.143663  18.878024  27.862574
H  40.114758  19.469628  28.603845
C  39.153802  18.919777  26.879778
C  39.257220  18.059670  25.821828
H  38.573118  18.082152  25.167273
C  38.031616  19.901930  26.976131
C  36.278643  20.921339  26.013248
C  36.918424  21.494958  28.100885
C  34.535305  22.263209  24.869865
H  34.519889  22.829119  25.629765
C  35.442946  21.173141  24.860230
C  35.506539  20.419022  23.711708
H  36.119340  19.700874  23.644903
C  34.674695  20.715145  22.659539
H  34.712594  20.221178  21.852747
C  33.779259  21.751256  22.807921
H  33.170954  21.916982  22.096840
C  32.046841  23.888997  27.266473
C  30.991460  26.816828  23.265917
H  31.680702  26.753877  22.617144
C  30.258539  27.928736  23.300604
H  30.402425  28.616692  22.662108
C  29.266108  28.073907  24.294319
H  28.751586  28.867209  24.364336
C  29.070192  27.005679  25.162777
C  29.882764  25.889274  25.048438
H  29.766499  25.186543  25.674729
C  28.055921  27.067987  26.203384
N  37.900577  23.439352  31.114792
N  41.454057  14.575564  24.842886
N  40.257359  17.187359  25.650320
N  37.935264  20.614296  28.064914
N  37.241526  20.004064  25.913684
N  36.068595  21.681882  27.123871
N  33.715667  22.529784  23.878077
N  30.811602  25.747957  24.118958
N  32.183020  23.955159  26.145572
N  28.062344  26.116024  27.138645
S  43.202534  13.478430  26.699278
S  31.886896  23.817696  28.921809
C  37.892226  54.706380  62.193612
H  38.695164  54.233611  61.993198
C  36.789312  54.478346  61.397740
C  35.609957  55.124550  61.697075
H  34.841064  55.023701  61.145297
C  35.575270  55.924276  62.820545
H  34.757559  56.314825  63.104464
C  36.723792  56.155522  63.529057
H  36.691032  56.764470  0.025694
C  42.175416  46.184965  57.714505
C  41.153437  49.250902  58.764747
H  41.829832  48.587354  58.710790
C  41.159861  50.076964  59.847749
H  41.849103  50.019794  60.496523
C  40.143663  50.995524  59.980074
H  40.114758  51.587128  60.721345
C  39.153802  51.037277  58.997278
C  39.257220  50.177170  57.939328
H  38.573118  50.199652  57.284773
C  38.031616  52.019430  59.093631
C  36.278643  53.038840  58.130748
C  36.918424  53.612458  60.218385
C  34.535305  54.380709  56.987365
H  34.519889  54.946619  57.747265
C  35.442946  53.290641  56.977730
C  35.506539  52.536522  55.829208
H  36.119340  51.818374  55.762403
C  34.674695  52.832645  54.777039
H  34.712594  52.338678  53.970247
C  33.779259  53.868756  54.925421
H  33.170954  54.034482  54.214340
C  32.046841  56.006496  59.383973
C  30.991460  58.934328  55.383417
H  31.680702  58.871378  54.734643
C  30.258539  60.046236  55.418104
H  30.402425  60.734192  54.779608
C  29.266108  60.191407  56.411819
H  28.751586  60.984709  56.481835
C  29.070192  59.123179  57.280277
C  29.882764  58.006774  57.165938
H  29.766499  57.304043  57.792230
C  28.055921  59.185487  58.320884
N  37.900577  55.556852  63.232292
N  41.454057  46.693064  56.960386
N  40.257359  49.304859  57.767820
N  37.935264  52.731796  60.182414
N  37.241526  52.121564  58.031184
N  36.068595  53.799382  59.241371
N  33.715667  54.647284  55.995577
N  30.811602  57.865457  56.236458
N  32.183020  56.072659  58.263072
N  28.062344  58.233524  59.256145
S  43.202534  45.595930  58.816778
S  31.886896  55.935196  61.039309
C  58.460273  14.017362  6.530130
H  57.657336  13.816949  6.057360
C  59.563188  13.221490  6.302096
C  60.742543  13.520825  6.948300
H  61.511436  12.969046  6.847451
C  60.777230  14.644295  7.748026
H  61.594941  14.928214  8.138575
C  59.628708  15.352807  7.979272
H  59.661468  16.084444  8.588220
C  54.177084  9.538255  62.243715
C  55.199063  10.588497  1.074652
H  54.522668  10.534540  0.411104
C  55.192639  11.671499  1.900714
H  54.503397  12.320273  1.843544
C  56.208837  11.803824  2.819274
H  56.237742  12.545096  3.410878
C  57.198698  10.821028  2.861027
C  57.095280  9.763078  2.000920
H  57.779382  9.108523  2.023402
C  58.320884  10.917381  3.843180
C  60.073857  9.954498  4.862590
C  59.434076  12.042135  5.436208
C  61.817195  8.811115  6.204459
H  61.832611  9.571015  6.770369
C  60.909554  8.801480  5.114391
C  60.845961  7.652958  4.360272
H  60.233159  7.586153  3.642124
C  61.677805  6.600789  4.656395
H  61.639906  5.793997  4.162428
C  62.573241  6.749171  5.692506
H  63.181546  6.038090  5.858232
C  0.070658  11.207723  7.830246
C  1.126040  7.207167  10.758078
H  0.436798  6.558393  10.695127
C  1.858961  7.241854  11.869986
H  1.715075  6.603358  12.557943
C  2.851392  8.235569  12.015157
H  3.365914  8.305585  12.808459
C  3.047308  9.104027  10.946929
C  2.234736  8.989688  9.830524
H  2.351001  9.615979  9.127794
C  4.061579  10.144634  11.009237
N  58.451923  15.056042  7.380602
N  54.898443  8.784136  62.751814
N  56.095141  9.591570  1.128609
N  58.417236  12.006164  4.555546
N  59.110974  9.854934  3.945314
N  60.283905  11.065121  5.623132
N  62.636833  7.819327  6.471034
N  1.305898  8.060208  9.689207
N  64.169480  10.086822  7.896409
N  4.055156  11.079895  10.057274
S  53.149966  10.640528  61.654680
S  0.230604  12.863059  7.758946
C  58.460273  46.134862  38.647630
H  57.657336  45.934448  38.174861
C  59.563188  45.338990  38.419596
C  60.742543  45.638325  39.065800
H  61.511436  45.086546  38.964951
C  60.777230  46.761795  39.865526
H  61.594941  47.045714  40.256075
C  59.628708  47.470307  40.096772
H  59.661468  48.201944  40.705720
C  54.177084  41.655755  30.126215
C  55.199063  42.705997  33.192152
H  54.522668  42.652040  32.528604
C  55.192639  43.788999  34.018214
H  54.503397  44.437773  33.961044
C  56.208837  43.921324  34.936774
H  56.237742  44.662596  35.528379
C  57.198698  42.938528  34.978527
C  57.095280  41.880578  34.118420
H  57.779382  41.226023  34.140902
C  58.320884  43.034881  35.960680
C  60.073857  42.071998  36.980089
C  59.434076  44.159635  37.553708
C  61.817195  40.928615  38.321959
H  61.832611  41.688515  38.887869
C  60.909554  40.918980  37.231891
C  60.845961  39.770458  36.477772
H  60.233159  39.703654  35.759625
C  61.677805  38.718289  36.773895
H  61.639906  37.911497  36.279928
C  62.573241  38.866671  37.810006
H  63.181546  38.155590  37.975732
C  0.070658  43.325223  39.947747
C  1.126040  39.324667  42.875578
H  0.436798  38.675894  42.812627
C  1.858961  39.359354  43.987486
H  1.715075  38.720858  44.675443
C  2.851392  40.353069  44.132657
H  3.365914  40.423085  44.925959
C  3.047308  41.221527  43.064429
C  2.234736  41.107188  41.948024
H  2.351001  41.733480  41.245294
C  4.061579  42.262134  43.126737
N  58.451923  47.173542  39.498101
N  54.898443  40.901636  30.634314
N  56.095141  41.709070  33.246109
N  58.417236  44.123664  36.673046
N  59.110974  41.972434  36.062814
N  60.283905  43.182621  37.740632
N  62.636833  39.936827  38.588534
N  1.305898  40.177708  41.806707
N  64.169480  42.204322  40.013909
N  4.055156  43.197395  42.174774
S  53.149966  42.758028  29.537180
S  0.230604  44.980559  39.876446
C  26.342773  14.017362  38.647630
H  25.539836  13.816949  38.174861
C  27.445688  13.221490  38.419596
C  28.625043  13.520825  39.065800
H  29.393936  12.969046  38.964951
C  28.659730  14.644295  39.865526
H  29.477441  14.928214  40.256075
C  27.511208  15.352807  40.096772
H  27.543968  16.084444  40.705720
C  22.059584  9.538255  30.126215
C  23.081563  10.588497  33.192152
H  22.405168  10.534540  32.528604
C  23.075139  11.671499  34.018214
H  22.385897  12.320273  33.961044
C  24.091337  11.803824  34.936774
H  24.120242  12.545096  35.528379
C  25.081198  10.821028  34.978527
C  24.977780  9.763078  34.118420
H  25.661883  9.108523  34.140902
C  26.203384  10.917381  35.960680
C  27.956357  9.954498  36.980089
C  27.316576  12.042135  37.553708
C  29.699695  8.811115  38.321959
H  29.715111  9.571015  38.887869
C  28.792054  8.801480  37.231891
C  28.728461  7.652958  36.477772
H  28.115659  7.586153  35.759625
C  29.560305  6.600789  36.773895
H  29.522406  5.793997  36.279928
C  30.455741  6.749171  37.810006
H  31.064046  6.038090  37.975732
C  32.188159  11.207723  39.947747
C  33.243540  7.207167  42.875578
H  32.554298  6.558393  42.812627
C  33.976461  7.241854  43.987486
H  33.832574  6.603358  44.675443
C  34.968892  8.235569  44.132657
H  35.483414  8.305585  44.925959
C  35.164808  9.104027  43.064429
C  34.352236  8.989688  41.948024
H  34.468501  9.615979  41.245294
C  36.179079  10.144634  43.126737
N  26.334423  15.056042  39.498101
N  22.780943  8.784136  30.634314
N  23.977641  9.591570  33.246109
N  26.299736  12.006164  36.673046
N  26.993474  9.854934  36.062814
N  28.166405  11.065121  37.740632
N  30.519333  7.819327  38.588534
N  33.423398  8.060208  41.806707
N  32.051980  10.086822  40.013909
N  36.172656  11.079895  42.174774
S  21.032466  10.640528  29.537180
S  32.348104  12.863059  39.876446
C  26.342773  46.134862  6.530130
H  25.539836  45.934448  6.057360
C  27.445688  45.338990  6.302096
C  28.625043  45.638325  6.948300
H  29.393936  45.086546  6.847451
C  28.659730  46.761795  7.748026
H  29.477441  47.045714  8.138575
C  27.511208  47.470307  7.979272
H  27.543968  48.201944  8.588220
C  22.059584  41.655755  62.243715
C  23.081563  42.705997  1.074652
H  22.405168  42.652040  0.411104
C  23.075139  43.788999  1.900714
H  22.385897  44.437773  1.843544
C  24.091337  43.921324  2.819274
H  24.120242  44.662596  3.410878
C  25.081198  42.938528  2.861027
C  24.977780  41.880578  2.000920
H  25.661883  41.226023  2.023402
C  26.203384  43.034881  3.843180
C  27.956357  42.071998  4.862590
C  27.316576  44.159635  5.436208
C  29.699695  40.928615  6.204459
H  29.715111  41.688515  6.770369
C  28.792054  40.918980  5.114391
C  28.728461  39.770458  4.360272
H  28.115659  39.703654  3.642124
C  29.560305  38.718289  4.656395
H  29.522406  37.911497  4.162428
C  30.455741  38.866671  5.692506
H  31.064046  38.155590  5.858232
C  32.188159  43.325223  7.830246
C  33.243540  39.324667  10.758078
H  32.554298  38.675894  10.695127
C  33.976461  39.359354  11.869986
H  33.832574  38.720858  12.557943
C  34.968892  40.353069  12.015157
H  35.483414  40.423085  12.808459
C  35.164808  41.221527  10.946929
C  34.352236  41.107188  9.830524
H  34.468501  41.733480  9.127794
C  36.179079  42.262134  11.009237
N  26.334423  47.173542  7.380602
N  22.780943  40.901636  62.751814
N  23.977641  41.709070  1.128609
N  26.299736  44.123664  4.555546
N  26.993474  41.972434  3.945314
N  28.166405  43.182621  5.623132
N  30.519333  39.936827  6.471034
N  33.423398  40.177708  9.689207
N  32.051980  42.204322  7.896409
N  36.172656  43.197395  10.057274
S  21.032466  42.758028  61.654680
S  32.348104  44.980559  7.758946
C  53.950976  2.041388  38.647630
H  54.753914  2.241802  38.174861
C  52.848062  2.837260  38.419596
C  51.668707  2.537925  39.065800
H  50.899814  3.089703  38.964951
C  51.634020  1.414455  39.865526
H  50.816308  1.130536  40.256075
C  52.782542  0.705943  40.096772
H  52.749782  64.209306  40.705720
C  58.234166  6.520495  30.126215
C  57.212187  5.470253  33.192152
H  57.888582  5.524210  32.528604
C  57.218611  4.387250  34.018214
H  57.907852  3.738477  33.961044
C  56.202413  4.254926  34.936774
H  56.173508  3.513654  35.528379
C  55.212552  5.237722  34.978527
C  55.315970  6.295672  34.118420
H  54.631867  6.950227  34.140902
C  54.090366  5.141369  35.960680
C  52.337393  6.104252  36.980089
C  52.977174  4.016615  37.553708
C  50.594055  7.247635  38.321959
H  50.578639  6.487735  38.887869
C  51.501696  7.257270  37.231891
C  51.565289  8.405792  36.477772
H  52.178091  8.472596  35.759625
C  50.733445  9.457961  36.773895
H  50.771344  10.264753  36.279928
C  49.838009  9.309579  37.810006
H  49.229704  10.020660  37.975732
C  48.105592  4.851027  39.947747
C  47.050210  8.851583  42.875578
H  47.739452  9.500357  42.812627
C  46.317289  8.816896  43.987486
H  46.461176  9.455392  44.675443
C  45.324858  7.823181  44.132657
H  44.810336  7.753165  44.925959
C  45.128942  6.954723  43.064429
C  45.941514  7.069062  41.948024
H  45.825249  6.442770  41.245294
C  44.114671  5.914116  43.126737
N  53.959327  1.002708  39.498101
N  57.512807  7.274614  30.634314
N  56.316109  6.467180  33.246109
N  53.994014  4.052586  36.673046
N  53.300276  6.203816  36.062814
N  52.127345  4.993629  37.740632
N  49.774417  8.239423  38.588534
N  46.870352  7.998542  41.806707
N  48.241770  5.971928  40.013909
N  44.121094  4.978855  42.174774
S  59.261284  5.418222  29.537180
S  47.945646  3.195691  39.876446
C  53.950976  34.158888  6.530130
H  54.753914  34.359302  6.057360
C  52.848062  34.954760  6.302096
C  51.668707  34.655425  6.948300
H  50.899814  35.207203  6.847451
C  51.634020  33.531955  7.748026
H  50.816308  33.248036  8.138575
C  52.782542  32.823443  7.979272
H  52.749782  32.091806  8.588220
C  58.234166  38.637995  62.243715
C  57.212187  37.587753  1.074652
H  57.888582  37.641710  0.411104
C  57.218611  36.504751  1.900714
H  57.907852  35.855977  1.843544
C  56.202413  36.372426  2.819274
H  56.173508  35.631155  3.410878
C  55.212552  37.355222  2.861027
C  55.315970  38.413172  2.000920
H  54.631867  39.067727  2.023402
C  54.090366  37.258869  3.843180
C  52.337393  38.221752  4.862590
C  52.977174  36.134115  5.436208
C  50.594055  39.365135  6.204459
H  50.578639  38.605235  6.770369
C  51.501696  39.374770  5.114391
C  51.565289  40.523292  4.360272
H  52.178091  40.590097  3.642124
C  50.733445  41.575461  4.656395
H  50.771344  42.382253  4.162428
C  49.838009  41.427079  5.692506
H  49.229704  42.138160  5.858232
C  48.105592  36.968527  7.830246
C  47.050210  40.969083  10.758078
H  47.739452  41.617857  10.695127
C  46.317289  40.934396  11.869986
H  46.461176  41.572892  12.557943
C  45.324858  39.940681  12.015157
H  44.810336  39.870665  12.808459
C  45.128942  39.072223  10.946929
C  45.941514  39.186562  9.830524
H  45.825249  38.560270  9.127794
C  44.114671  38.031616  11.009237
N  53.959327  33.120208  7.380602
N  57.512807  39.392114  62.751814
N  56.316109  38.584680  1.128609
N  53.994014  36.170086  4.555546
N  53.300276  38.321316  3.945314
N  52.127345  37.111129  5.623132
N  49.774417  40.356923  6.471034
N  46.870352  40.116042  9.689207
N  48.241770  38.089428  7.896409
N  44.121094  37.096355  10.057274
S  59.261284  37.535722  61.654680
S  47.945646  35.313191  7.758946
C  21.833476  2.041388  6.530130
H  22.636414  2.241802  6.057360
C  20.730562  2.837260  6.302096
C  19.551207  2.537925  6.948300
H  18.782314  3.089703  6.847451
C  19.516520  1.414455  7.748026
H  18.698809  1.130536  8.138575
C  20.665042  0.705943  7.979272
H  20.632282  64.209306  8.588220
C  26.116666  6.520495  62.243715
C  25.094687  5.470253  1.074652
H  25.771082  5.524210  0.411104
C  25.101111  4.387250  1.900714
H  25.790353  3.738477  1.843544
C  24.084913  4.254926  2.819274
H  24.056007  3.513654  3.410878
C  23.095052  5.237722  2.861027
C  23.198470  6.295672  2.000920
H  22.514367  6.950227  2.023402
C  21.972866  5.141369  3.843180
C  20.219893  6.104252  4.862590
C  20.859674  4.016615  5.436208
C  18.476555  7.247635  6.204459
H  18.461139  6.487735  6.770369
C  19.384196  7.257270  5.114391
C  19.447789  8.405792  4.360272
H  20.060590  8.472596  3.642124
C  18.615945  9.457961  4.656395
H  18.653844  10.264753  4.162428
C  17.720509  9.309579  5.692506
H  17.112204  10.020660  5.858232
C  15.988092  4.851027  7.830246
C  14.932710  8.851583  10.758078
H  15.621952  9.500357  10.695127
C  14.199789  8.816896  11.869986
H  14.343675  9.455392  12.557943
C  13.207358  7.823181  12.015157
H  12.692836  7.753165  12.808459
C  13.011442  6.954723  10.946929
C  13.824014  7.069062  9.830524
H  13.707749  6.442770  9.127794
C  11.997171  5.914116  11.009237
N  21.841827  1.002708  7.380602
N  25.395307  7.274614  62.751814
N  24.198609  6.467180  1.128609
N  21.876514  4.052586  4.555546
N  21.182776  6.203816  3.945314
N  20.009845  4.993629  5.623132
N  17.656917  8.239423  6.471034
N  14.752852  7.998542  9.689207
N  16.124270  5.971928  7.896409
N  12.003594  4.978855  10.057274
S  27.143784  5.418222  61.654680
S  15.828146  3.195691  7.758946
C  21.833476  34.158888  38.647630
H  22.636414  34.359302  38.174861
C  20.730562  34.954760  38.419596
C  19.551207  34.655425  39.065800
H  18.782314  35.207203  38.964951
C  19.516520  33.531955  39.865526
H  18.698809  33.248036  40.256075
C  20.665042  32.823443  40.096772
H  20.632282  32.091806  40.705720
C  26.116666  38.637995  30.126215
C  25.094687  37.587753  33.192152
H  25.771082  37.641710  32.528604
C  25.101111  36.504751  34.018214
H  25.790353  35.855977  33.961044
C  24.084913  36.372426  34.936774
H  24.056007  35.631155  35.528379
C  23.095052  37.355222  34.978527
C  23.198470  38.413172  34.118420
H  22.514367  39.067727  34.140902
C  21.972866  37.258869  35.960680
C  20.219893  38.221752  36.980089
C  20.859674  36.134115  37.553708
C  18.476555  39.365135  38.321959
H  18.461139  38.605235  38.887869
C  19.384196  39.374770  37.231891
C  19.447789  40.523292  36.477772
H  20.060590  40.590097  35.759625
C  18.615945  41.575461  36.773895
H  18.653844  42.382253  36.279928
C  17.720509  41.427079  37.810006
H  17.112204  42.138160  37.975732
C  15.988092  36.968527  39.947747
C  14.932710  40.969083  42.875578
H  15.621952  41.617857  42.812627
C  14.199789  40.934396  43.987486
H  14.343675  41.572892  44.675443
C  13.207358  39.940681  44.132657
H  12.692836  39.870665  44.925959
C  13.011442  39.072223  43.064429
C  13.824014  39.186562  41.948024
H  13.707749  38.560270  41.245294
C  11.997171  38.031616  43.126737
N  21.841827  33.120208  39.498101
N  25.395307  39.392114  30.634314
N  24.198609  38.584680  33.246109
N  21.876514  36.170086  36.673046
N  21.182776  38.321316  36.062814
N  20.009845  37.111129  37.740632
N  17.656917  40.356923  38.588534
N  14.752852  40.116042  41.806707
N  16.124270  38.089428  40.013909
N  12.003594  37.096355  42.174774
S  27.143784  37.535722  29.537180
S  15.828146  35.313191  39.876446
C  26.342773  34.158888  9.528620
H  25.539836  34.359302  10.001390
C  27.445688  34.954760  9.756654
C  28.625043  34.655425  9.110450
H  29.393936  35.207203  9.211299
C  28.659730  33.531955  8.310724
H  29.477441  33.248036  7.920176
C  27.511208  32.823443  8.079478
H  27.543968  32.091806  7.470530
C  22.059584  38.637995  18.050035
C  23.081563  37.587753  14.984098
H  22.405168  37.641710  15.647646
C  23.075139  36.504751  14.158036
H  22.385897  35.855977  14.215205
C  24.091337  36.372426  13.239476
H  24.120242  35.631155  12.647871
C  25.081198  37.355222  13.197723
C  24.977780  38.413172  14.057830
H  25.661883  39.067727  14.035348
C  26.203384  37.258869  12.215570
C  27.956357  38.221752  11.196161
C  27.316576  36.134115  10.622542
C  29.699695  39.365135  9.854291
H  29.715111  38.605235  9.288381
C  28.792054  39.374770  10.944359
C  28.728461  40.523292  11.698478
H  28.115659  40.590097  12.416626
C  29.560305  41.575461  11.402355
H  29.522406  42.382253  11.896322
C  30.455741  41.427079  10.366244
H  31.064046  42.138160  10.200518
C  32.188159  36.968527  8.228503
C  33.243540  40.969083  5.300672
H  32.554298  41.617857  5.363622
C  33.976461  40.934396  4.188764
H  33.832574  41.572892  3.500808
C  34.968892  39.940681  4.043593
H  35.483414  39.870665  3.250291
C  35.164808  39.072223  5.111821
C  34.352236  39.186562  6.228226
H  34.468501  38.560270  6.930956
C  36.179079  38.031616  5.049513
N  26.334423  33.120208  8.678148
N  22.780943  39.392114  17.541936
N  23.977641  38.584680  14.930141
N  26.299736  36.170086  11.503204
N  26.993474  38.321316  12.113436
N  28.166405  37.111129  10.435618
N  30.519333  40.356923  9.587716
N  33.423398  40.116042  6.369543
N  32.051980  38.089428  8.162341
N  36.172656  37.096355  6.001476
S  21.032466  37.535722  18.639070
S  32.348104  35.313191  8.299804
C  26.342773  2.041388  41.646120
H  25.539836  2.241802  42.118889
C  27.445688  2.837260  41.874154
C  28.625043  2.537925  41.227950
H  29.393936  3.089703  41.328799
C  28.659730  1.414455  40.428224
H  29.477441  1.130536  40.037675
C  27.511208  0.705943  40.196978
H  27.543968  64.209306  39.588030
C  22.059584  6.520495  50.167535
C  23.081563  5.470253  47.101598
H  22.405168  5.524210  47.765146
C  23.075139  4.387250  46.275536
H  22.385897  3.738477  46.332706
C  24.091337  4.254926  45.356976
H  24.120242  3.513654  44.765372
C  25.081198  5.237722  45.315223
C  24.977780  6.295672  46.175330
H  25.661883  6.950227  46.152848
C  26.203384  5.141369  44.333070
C  27.956357  6.104252  43.313660
C  27.316576  4.016615  42.740042
C  29.699695  7.247635  41.971791
H  29.715111  6.487735  41.405881
C  28.792054  7.257270  43.061859
C  28.728461  8.405792  43.815978
H  28.115659  8.472596  44.534126
C  29.560305  9.457961  43.519855
H  29.522406  10.264753  44.013822
C  30.455741  9.309579  42.483744
H  31.064046  10.020660  42.318018
C  32.188159  4.851027  40.346004
C  33.243540  8.851583  37.418172
H  32.554298  9.500357  37.481122
C  33.976461  8.816896  36.306264
H  33.832574  9.455392  35.618308
C  34.968892  7.823181  36.161093
H  35.483414  7.753165  35.367791
C  35.164808  6.954723  37.229321
C  34.352236  7.069062  38.345726
H  34.468501  6.442770  39.048457
C  36.179079  5.914116  37.167013
N  26.334423  1.002708  40.795648
N  22.780943  7.274614  49.659436
N  23.977641  6.467180  47.047641
N  26.299736  4.052586  43.620704
N  26.993474  6.203816  44.230936
N  28.166405  4.993629  42.553118
N  30.519333  8.239423  41.705216
N  33.423398  7.998542  38.487043
N  32.051980  5.971928  40.279841
N  36.172656  4.978855  38.118976
S  21.032466  5.418222  50.756570
S  32.348104  3.195691  40.417304
C  58.460273  34.158888  41.646120
H  57.657336  34.359302  42.118889
C  59.563188  34.954760  41.874154
C  60.742543  34.655425  41.227950
H  61.511436  35.207203  41.328799
C  60.777230  33.531955  40.428224
H  61.594941  33.248036  40.037675
C  59.628708  32.823443  40.196978
H  59.661468  32.091806  39.588030
C  54.177084  38.637995  50.167535
C  55.199063  37.587753  47.101598
H  54.522668  37.641710  47.765146
C  55.192639  36.504751  46.275536
H  54.503397  35.855977  46.332706
C  56.208837  36.372426  45.356976
H  56.237742  35.631155  44.765372
C  57.198698  37.355222  45.315223
C  57.095280  38.413172  46.175330
H  57.779382  39.067727  46.152848
C  58.320884  37.258869  44.333070
C  60.073857  38.221752  43.313660
C  59.434076  36.134115  42.740042
C  61.817195  39.365135  41.971791
H  61.832611  38.605235  41.405881
C  60.909554  39.374770  43.061859
C  60.845961  40.523292  43.815978
H  60.233159  40.590097  44.534126
C  61.677805  41.575461  43.519855
H  61.639906  42.382253  44.013822
C  62.573241  41.427079  42.483744
H  63.181546  42.138160  42.318018
C  0.070658  36.968527  40.346004
C  1.126040  40.969083  37.418172
H  0.436798  41.617857  37.481122
C  1.858961  40.934396  36.306264
H  1.715075  41.572892  35.618308
C  2.851392  39.940681  36.161093
H  3.365914  39.870665  35.367791
C  3.047308  39.072223  37.229321
C  2.234736  39.186562  38.345726
H  2.351001  38.560270  39.048457
C  4.061579  38.031616  37.167013
N  58.451923  33.120208  40.795648
N  54.898443  39.392114  49.659436
N  56.095141  38.584680  47.047641
N  58.417236  36.170086  43.620704
N  59.110974  38.321316  44.230936
N  60.283905  37.111129  42.553118
N  62.636833  40.356923  41.705216
N  1.305898  40.116042  38.487043
N  64.169480  38.089428  40.279841
N  4.055156  37.096355  38.118976
S  53.149966  37.535722  50.756570
S  0.230604  35.313191  40.417304
C  58.460273  2.041388  9.528620
H  57.657336  2.241802  10.001390
C  59.563188  2.837260  9.756654
C  60.742543  2.537925  9.110450
H  61.511436  3.089703  9.211299
C  60.777230  1.414455  8.310724
H  61.594941  1.130536  7.920176
C  59.628708  0.705943  8.079478
H  59.661468  64.209306  7.470530
C  54.177084  6.520495  18.050035
C  55.199063  5.470253  14.984098
H  54.522668  5.524210  15.647646
C  55.192639  4.387250  14.158036
H  54.503397  3.738477  14.215205
C  56.208837  4.254926  13.239476
H  56.237742  3.513654  12.647871
C  57.198698  5.237722  13.197723
C  57.095280  6.295672  14.057830
H  57.779382  6.950227  14.035348
C  58.320884  5.141369  12.215570
C  60.073857  6.104252  11.196161
C  59.434076  4.016615  10.622542
C  61.817195  7.247635  9.854291
H  61.832611  6.487735  9.288381
C  60.909554  7.257270  10.944359
C  60.845961  8.405792  11.698478
H  60.233159  8.472596  12.416626
C  61.677805  9.457961  11.402355
H  61.639906  10.264753  11.896322
C  62.573241  9.309579  10.366244
H  63.181546  10.020660  10.200518
C  0.070658  4.851027  8.228503
C  1.126040  8.851583  5.300672
H  0.436798  9.500357  5.363622
C  1.858961  8.816896  4.188764
H  1.715075  9.455392  3.500808
C  2.851392  7.823181  4.043593
H  3.365914  7.753165  3.250291
C  3.047308  6.954723  5.111821
C  2.234736  7.069062  6.228226
H  2.351001  6.442770  6.930956
C  4.061579  5.914116  5.049513
N  58.451923  1.002708  8.678148
N  54.898443  7.274614  17.541936
N  56.095141  6.467180  14.930141
N  58.417236  4.052586  11.503204
N  59.110974  6.203816  12.113436
N  60.283905  4.993629  10.435618
N  62.636833  8.239423  9.587716
N  1.305898  7.998542  6.369543
N  64.169480  5.971928  8.162341
N  4.055156  4.978855  6.001476
S  53.149966  5.418222  18.639070
S  0.230604  3.195691  8.299804
C  21.833476  46.134862  41.646120
H  22.636414  45.934448  42.118889
C  20.730562  45.338990  41.874154
C  19.551207  45.638325  41.227950
H  18.782314  45.086546  41.328799
C  19.516520  46.761795  40.428224
H  18.698809  47.045714  40.037675
C  20.665042  47.470307  40.196978
H  20.632282  48.201944  39.588030
C  26.116666  41.655755  50.167535
C  25.094687  42.705997  47.101598
H  25.771082  42.652040  47.765146
C  25.101111  43.788999  46.275536
H  25.790353  44.437773  46.332706
C  24.084913  43.921324  45.356976
H  24.056007  44.662596  44.765372
C  23.095052  42.938528  45.315223
C  23.198470  41.880578  46.175330
H  22.514367  41.226023  46.152848
C  21.972866  43.034881  44.333070
C  20.219893  42.071998  43.313660
C  20.859674  44.159635  42.740042
C  18.476555  40.928615  41.971791
H  18.461139  41.688515  41.405881
C  19.384196  40.918980  43.061859
C  19.447789  39.770458  43.815978
H  20.060590  39.703654  44.534126
C  18.615945  38.718289  43.519855
H  18.653844  37.911497  44.013822
C  17.720509  38.866671  42.483744
H  17.112204  38.155590  42.318018
C  15.988092  43.325223  40.346004
C  14.932710  39.324667  37.418172
H  15.621952  38.675894  37.481122
C  14.199789  39.359354  36.306264
H  14.343675  38.720858  35.618308
C  13.207358  40.353069  36.161093
H  12.692836  40.423085  35.367791
C  13.011442  41.221527  37.229321
C  13.824014  41.107188  38.345726
H  13.707749  41.733480  39.048457
C  11.997171  42.262134  37.167013
N  21.841827  47.173542  40.795648
N  25.395307  40.901636  49.659436
N  24.198609  41.709070  47.047641
N  21.876514  44.123664  43.620704
N  21.182776  41.972434  44.230936
N  20.009845  43.182621  42.553118
N  17.656917  39.936827  41.705216
N  14.752852  40.177708  38.487043
N  16.124270  42.204322  40.279841
N  12.003594  43.197395  38.118976
S  27.143784  42.758028  50.756570
S  15.828146  44.980559  40.417304
C  21.833476  14.017362  9.528620
H  22.636414  13.816949  10.001390
C  20.730562  13.221490  9.756654
C  19.551207  13.520825  9.110450
H  18.782314  12.969046  9.211299
C  19.516520  14.644295  8.310724
H  18.698809  14.928214  7.920176
C  20.665042  15.352807  8.079478
H  20.632282  16.084444  7.470530
C  26.116666  9.538255  18.050035
C  25.094687  10.588497  14.984098
H  25.771082  10.534540  15.647646
C  25.101111  11.671499  14.158036
H  25.790353  12.320273  14.215205
C  24.084913  11.803824  13.239476
H  24.056007  12.545096  12.647871
C  23.095052  10.821028  13.197723
C  23.198470  9.763078  14.057830
H  22.514367  9.108523  14.035348
C  21.972866  10.917381  12.215570
C  20.219893  9.954498  11.196161
C  20.859674  12.042135  10.622542
C  18.476555  8.811115  9.854291
H  18.461139  9.571015  9.288381
C  19.384196  8.801480  10.944359
C  19.447789  7.652958  11.698478
H  20.060590  7.586153  12.416626
C  18.615945  6.600789  11.402355
H  18.653844  5.793997  11.896322
C  17.720509  6.749171  10.366244
H  17.112204  6.038090  10.200518
C  15.988092  11.207723  8.228503
C  14.932710  7.207167  5.300672
H  15.621952  6.558393  5.363622
C  14.199789  7.241854  4.188764
H  14.343675  6.603358  3.500808
C  13.207358  8.235569  4.043593
H  12.692836  8.305585  3.250291
C  13.011442  9.104027  5.111821
C  13.824014  8.989688  6.228226
H  13.707749  9.615979  6.930956
C  11.997171  10.144634  5.049513
N  21.841827  15.056042  8.678148
N  25.395307  8.784136  17.541936
N  24.198609  9.591570  14.930141
N  21.876514  12.006164  11.503204
N  21.182776  9.854934  12.113436
N  20.009845  11.065121  10.435618
N  17.656917  7.819327  9.587716
N  14.752852  8.060208  6.369543
N  16.124270  10.086822  8.162341
N  12.003594  11.079895  6.001476
S  27.143784  10.640528  18.639070
S  15.828146  12.863059  8.299804
C  53.950976  46.134862  9.528620
H  54.753914  45.934448  10.001390
C  52.848062  45.338990  9.756654
C  51.668707  45.638325  9.110450
H  50.899814  45.086546  9.211299
C  51.634020  46.761795  8.310724
H  50.816308  47.045714  7.920176
C  52.782542  47.470307  8.079478
H  52.749782  48.201944  7.470530
C  58.234166  41.655755  18.050035
C  57.212187  42.705997  14.984098
H  57.888582  42.652040  15.647646
C  57.218611  43.788999  14.158036
H  57.907852  44.437773  14.215205
C  56.202413  43.921324  13.239476
H  56.173508  44.662596  12.647871
C  55.212552  42.938528  13.197723
C  55.315970  41.880578  14.057830
H  54.631867  41.226023  14.035348
C  54.090366  43.034881  12.215570
C  52.337393  42.071998  11.196161
C  52.977174  44.159635  10.622542
C  50.594055  40.928615  9.854291
H  50.578639  41.688515  9.288381
C  51.501696  40.918980  10.944359
C  51.565289  39.770458  11.698478
H  52.178091  39.703654  12.416626
C  50.733445  38.718289  11.402355
H  50.771344  37.911497  11.896322
C  49.838009  38.866671  10.366244
H  49.229704  38.155590  10.200518
C  48.105592  43.325223  8.228503
C  47.050210  39.324667  5.300672
H  47.739452  38.675894  5.363622
C  46.317289  39.359354  4.188764
H  46.461176  38.720858  3.500808
C  45.324858  40.353069  4.043593
H  44.810336  40.423085  3.250291
C  45.128942  41.221527  5.111821
C  45.941514  41.107188  6.228226
H  45.825249  41.733480  6.930956
C  44.114671  42.262134  5.049513
N  53.959327  47.173542  8.678148
N  57.512807  40.901636  17.541936
N  56.316109  41.709070  14.930141
N  53.994014  44.123664  11.503204
N  53.300276  41.972434  12.113436
N  52.127345  43.182621  10.435618
N  49.774417  39.936827  9.587716
N  46.870352  40.177708  6.369543
N  48.241770  42.204322  8.162341
N  44.121094  43.197395  6.001476
S  59.261284  42.758028  18.639070
S  47.945646  44.980559  8.299804
C  53.950976  14.017362  41.646120
H  54.753914  13.816949  42.118889
C  52.848062  13.221490  41.874154
C  51.668707  13.520825  41.227950
H  50.899814  12.969046  41.328799
C  51.634020  14.644295  40.428224
H  50.816308  14.928214  40.037675
C  52.782542  15.352807  40.196978
H  52.749782  16.084444  39.588030
C  58.234166  9.538255  50.167535
C  57.212187  10.588497  47.101598
H  57.888582  10.534540  47.765146
C  57.218611  11.671499  46.275536
H  57.907852  12.320273  46.332706
C  56.202413  11.803824  45.356976
H  56.173508  12.545096  44.765372
C  55.212552  10.821028  45.315223
C  55.315970  9.763078  46.175330
H  54.631867  9.108523  46.152848
C  54.090366  10.917381  44.333070
C  52.337393  9.954498  43.313660
C  52.977174  12.042135  42.740042
C  50.594055  8.811115  41.971791
H  50.578639  9.571015  41.405881
C  51.501696  8.801480  43.061859
C  51.565289  7.652958  43.815978
H  52.178091  7.586153  44.534126
C  50.733445  6.600789  43.519855
H  50.771344  5.793997  44.013822
C  49.838009  6.749171  42.483744
H  49.229704  6.038090  42.318018
C  48.105592  11.207723  40.346004
C  47.050210  7.207167  37.418172
H  47.739452  6.558393  37.481122
C  46.317289  7.241854  36.306264
H  46.461176  6.603358  35.618308
C  45.324858  8.235569  36.161093
H  44.810336  8.305585  35.367791
C  45.128942  9.104027  37.229321
C  45.941514  8.989688  38.345726
H  45.825249  9.615979  39.048457
C  44.114671  10.144634  37.167013
N  53.959327  15.056042  40.795648
N  57.512807  8.784136  49.659436
N  56.316109  9.591570  47.047641
N  53.994014  12.006164  43.620704
N  53.300276  9.854934  44.230936
N  52.127345  11.065121  42.553118
N  49.774417  7.819327  41.705216
N  46.870352  8.060208  38.487043
N  48.241770  10.086822  40.279841
N  44.121094  11.079895  38.118976
S  59.261284  10.640528  50.756570
S  47.945646  12.863059  40.417304
C  46.134862  41.646120  21.833476
H  45.934448  42.118889  22.636414
C  45.338990  41.874154  20.730562
C  45.638325  41.227950  19.551207
H  45.086546  41.328799  18.782314
C  46.761795  40.428224  19.516520
H  47.045714  40.037675  18.698809
C  47.470307  40.196978  20.665042
H  48.201944  39.588030  20.632282
C  41.655755  50.167535  26.116666
C  42.705997  47.101598  25.094687
H  42.652040  47.765146  25.771082
C  43.788999  46.275536  25.101111
H  44.437773  46.332706  25.790353
C  43.921324  45.356976  24.084913
H  44.662596  44.765372  24.056007
C  42.938528  45.315223  23.095052
C  41.880578  46.175330  23.198470
H  41.226023  46.152848  22.514367
C  43.034881  44.333070  21.972866
C  42.071998  43.313660  20.219893
C  44.159635  42.740042  20.859674
C  40.928615  41.971791  18.476555
H  41.688515  41.405881  18.461139
C  40.918980  43.061859  19.384196
C  39.770458  43.815978  19.447789
H  39.703654  44.534126  20.060590
C  38.718289  43.519855  18.615945
H  37.911497  44.013822  18.653844
C  38.866671  42.483744  17.720509
H  38.155590  42.318018  17.112204
C  43.325223  40.346004  15.988092
C  39.324667  37.418172  14.932710
H  38.675894  37.481122  15.621952
C  39.359354  36.306264  14.199789
H  38.720858  35.618308  14.343675
C  40.353069  36.161093  13.207358
H  40.423085  35.367791  12.692836
C  41.221527  37.229321  13.011442
C  41.107188  38.345726  13.824014
H  41.733480  39.048457  13.707749
C  42.262134  37.167013  11.997171
N  47.173542  40.795648  21.841827
N  40.901636  49.659436  25.395307
N  41.709070  47.047641  24.198609
N  44.123664  43.620704  21.876514
N  41.972434  44.230936  21.182776
N  43.182621  42.553118  20.009845
N  39.936827  41.705216  17.656917
N  40.177708  38.487043  14.752852
N  42.204322  40.279841  16.124270
N  43.197395  38.118976  12.003594
S  42.758028  50.756570  27.143784
S  44.980559  40.417304  15.828146
C  46.134862  9.528620  53.950976
H  45.934448  10.001390  54.753914
C  45.338990  9.756654  52.848062
C  45.638325  9.110450  51.668707
H  45.086546  9.211299  50.899814
C  46.761795  8.310724  51.634020
H  47.045714  7.920176  50.816308
C  47.470307  8.079478  52.782542
H  48.201944  7.470530  52.749782
C  41.655755  18.050035  58.234166
C  42.705997  14.984098  57.212187
H  42.652040  15.647646  57.888582
C  43.788999  14.158036  57.218611
H  44.437773  14.215205  57.907852
C  43.921324  13.239476  56.202413
H  44.662596  12.647871  56.173508
C  42.938528  13.197723  55.212552
C  41.880578  14.057830  55.315970
H  41.226023  14.035348  54.631867
C  43.034881  12.215570  54.090366
C  42.071998  11.196161  52.337393
C  44.159635  10.622542  52.977174
C  40.928615  9.854291  50.594055
H  41.688515  9.288381  50.578639
C  40.918980  10.944359  51.501696
C  39.770458  11.698478  51.565289
H  39.703654  12.416626  52.178091
C  38.718289  11.402355  50.733445
H  37.911497  11.896322  50.771344
C  38.866671  10.366244  49.838009
H  38.155590  10.200518  49.229704
C  43.325223  8.228503  48.105592
C  39.324667  5.300672  47.050210
H  38.675894  5.363622  47.739452
C  39.359354  4.188764  46.317289
H  38.720858  3.500808  46.461176
C  40.353069  4.043593  45.324858
H  40.423085  3.250291  44.810336
C  41.221527  5.111821  45.128942
C  41.107188  6.228226  45.941514
H  41.733480  6.930956  45.825249
C  42.262134  5.049513  44.114671
N  47.173542  8.678148  53.959327
N  40.901636  17.541936  57.512807
N  41.709070  14.930141  56.316109
N  44.123664  11.503204  53.994014
N  41.972434  12.113436  53.300276
N  43.182621  10.435618  52.127345
N  39.936827  9.587716  49.774417
N  40.177708  6.369543  46.870352
N  42.204322  8.162341  48.241770
N  43.197395  6.001476  44.121094
S  42.758028  18.639070  59.261284
S  44.980559  8.299804  47.945646
C  14.017362  41.646120  53.950976
H  13.816949  42.118889  54.753914
C  13.221490  41.874154  52.848062
C  13.520825  41.227950  51.668707
H  12.969046  41.328799  50.899814
C  14.644295  40.428224  51.634020
H  14.928214  40.037675  50.816308
C  15.352807  40.196978  52.782542
H  16.084444  39.588030  52.749782
C  9.538255  50.167535  58.234166
C  10.588497  47.101598  57.212187
H  10.534540  47.765146  57.888582
C  11.671499  46.275536  57.218611
H  12.320273  46.332706  57.907852
C  11.803824  45.356976  56.202413
H  12.545096  44.765372  56.173508
C  10.821028  45.315223  55.212552
C  9.763078  46.175330  55.315970
H  9.108523  46.152848  54.631867
C  10.917381  44.333070  54.090366
C  9.954498  43.313660  52.337393
C  12.042135  42.740042  52.977174
C  8.811115  41.971791  50.594055
H  9.571015  41.405881  50.578639
C  8.801480  43.061859  51.501696
C  7.652958  43.815978  51.565289
H  7.586153  44.534126  52.178091
C  6.600789  43.519855  50.733445
H  5.793997  44.013822  50.771344
C  6.749171  42.483744  49.838009
H  6.038090  42.318018  49.229704
C  11.207723  40.346004  48.105592
C  7.207167  37.418172  47.050210
H  6.558393  37.481122  47.739452
C  7.241854  36.306264  46.317289
H  6.603358  35.618308  46.461176
C  8.235569  36.161093  45.324858
H  8.305585  35.367791  44.810336
C  9.104027  37.229321  45.128942
C  8.989688  38.345726  45.941514
H  9.615979  39.048457  45.825249
C  10.144634  37.167013  44.114671
N  15.056042  40.795648  53.959327
N  8.784136  49.659436  57.512807
N  9.591570  47.047641  56.316109
N  12.006164  43.620704  53.994014
N  9.854934  44.230936  53.300276
N  11.065121  42.553118  52.127345
N  7.819327  41.705216  49.774417
N  8.060208  38.487043  46.870352
N  10.086822  40.279841  48.241770
N  11.079895  38.118976  44.121094
S  10.640528  50.756570  59.261284
S  12.863059  40.417304  47.945646
C  14.017362  9.528620  21.833476
H  13.816949  10.001390  22.636414
C  13.221490  9.756654  20.730562
C  13.520825  9.110450  19.551207
H  12.969046  9.211299  18.782314
C  14.644295  8.310724  19.516520
H  14.928214  7.920176  18.698809
C  15.352807  8.079478  20.665042
H  16.084444  7.470530  20.632282
C  9.538255  18.050035  26.116666
C  10.588497  14.984098  25.094687
H  10.534540  15.647646  25.771082
C  11.671499  14.158036  25.101111
H  12.320273  14.215205  25.790353
C  11.803824  13.239476  24.084913
H  12.545096  12.647871  24.056007
C  10.821028  13.197723  23.095052
C  9.763078  14.057830  23.198470
H  9.108523  14.035348  22.514367
C  10.917381  12.215570  21.972866
C  9.954498  11.196161  20.219893
C  12.042135  10.622542  20.859674
C  8.811115  9.854291  18.476555
H  9.571015  9.288381  18.461139
C  8.801480  10.944359  19.384196
C  7.652958  11.698478  19.447789
H  7.586153  12.416626  20.060590
C  6.600789  11.402355  18.615945
H  5.793997  11.896322  18.653844
C  6.749171  10.366244  17.720509
H  6.038090  10.200518  17.112204
C  11.207723  8.228503  15.988092
C  7.207167  5.300672  14.932710
H  6.558393  5.363622  15.621952
C  7.241854  4.188764  14.199789
H  6.603358  3.500808  14.343675
C  8.235569  4.043593  13.207358
H  8.305585  3.250291  12.692836
C  9.104027  5.111821  13.011442
C  8.989688  6.228226  13.824014
H  9.615979  6.930956  13.707749
C  10.144634  5.049513  11.997171
N  15.056042  8.678148  21.841827
N  8.784136  17.541936  25.395307
N  9.591570  14.930141  24.198609
N  12.006164  11.503204  21.876514
N  9.854934  12.113436  21.182776
N  11.065121  10.435618  20.009845
N  7.819327  9.587716  17.656917
N  8.060208  6.369543  14.752852
N  10.086822  8.162341  16.124270
N  11.079895  6.001476  12.003594
S  10.640528  18.639070  27.143784
S  12.863059  8.299804  15.828146
C  34.158888  9.528620  26.342773
H  34.359302  10.001390  25.539836
C  34.954760  9.756654  27.445688
C  34.655425  9.110450  28.625043
H  35.207203  9.211299  29.393936
C  33.531955  8.310724  28.659730
H  33.248036  7.920176  29.477441
C  32.823443  8.079478  27.511208
H  32.091806  7.470530  27.543968
C  38.637995  18.050035  22.059584
C  37.587753  14.984098  23.081563
H  37.641710  15.647646  22.405168
C  36.504751  14.158036  23.075139
H  35.855977  14.215205  22.385897
C  36.372426  13.239476  24.091337
H  35.631155  12.647871  24.120242
C  37.355222  13.197723  25.081198
C  38.413172  14.057830  24.977780
H  39.067727  14.035348  25.661883
C  37.258869  12.215570  26.203384
C  38.221752  11.196161  27.956357
C  36.134115  10.622542  27.316576
C  39.365135  9.854291  29.699695
H  38.605235  9.288381  29.715111
C  39.374770  10.944359  28.792054
C  40.523292  11.698478  28.728461
H  40.590097  12.416626  28.115659
C  41.575461  11.402355  29.560305
H  42.382253  11.896322  29.522406
C  41.427079  10.366244  30.455741
H  42.138160  10.200518  31.064046
C  36.968527  8.228503  32.188159
C  40.969083  5.300672  33.243540
H  41.617857  5.363622  32.554298
C  40.934396  4.188764  33.976461
H  41.572892  3.500808  33.832574
C  39.940681  4.043593  34.968892
H  39.870665  3.250291  35.483414
C  39.072223  5.111821  35.164808
C  39.186562  6.228226  34.352236
H  38.560270  6.930956  34.468501
C  38.031616  5.049513  36.179079
N  33.120208  8.678148  26.334423
N  39.392114  17.541936  22.780943
N  38.584680  14.930141  23.977641
N  36.170086  11.503204  26.299736
N  38.321316  12.113436  26.993474
N  37.111129  10.435618  28.166405
N  40.356923  9.587716  30.519333
N  40.116042  6.369543  33.423398
N  38.089428  8.162341  32.051980
N  37.096355  6.001476  36.172656
S  37.535722  18.639070  21.032466
S  35.313191  8.299804  32.348104
C  34.158888  41.646120  58.460273
H  34.359302  42.118889  57.657336
C  34.954760  41.874154  59.563188
C  34.655425  41.227950  60.742543
H  35.207203  41.328799  61.511436
C  33.531955  40.428224  60.777230
H  33.248036  40.037675  61.594941
C  32.823443  40.196978  59.628708
H  32.091806  39.588030  59.661468
C  38.637995  50.167535  54.177084
C  37.587753  47.101598  55.199063
H  37.641710  47.765146  54.522668
C  36.504751  46.275536  55.192639
H  35.855977  46.332706  54.503397
C  36.372426  45.356976  56.208837
H  35.631155  44.765372  56.237742
C  37.355222  45.315223  57.198698
C  38.413172  46.175330  57.095280
H  39.067727  46.152848  57.779382
C  37.258869  44.333070  58.320884
C  38.221752  43.313660  60.073857
C  36.134115  42.740042  59.434076
C  39.365135  41.971791  61.817195
H  38.605235  41.405881  61.832611
C  39.374770  43.061859  60.909554
C  40.523292  43.815978  60.845961
H  40.590097  44.534126  60.233159
C  41.575461  43.519855  61.677805
H  42.382253  44.013822  61.639906
C  41.427079  42.483744  62.573241
H  42.138160  42.318018  63.181546
C  36.968527  40.346004  0.070658
C  40.969083  37.418172  1.126040
H  41.617857  37.481122  0.436798
C  40.934396  36.306264  1.858961
H  41.572892  35.618308  1.715075
C  39.940681  36.161093  2.851392
H  39.870665  35.367791  3.365914
C  39.072223  37.229321  3.047308
C  39.186562  38.345726  2.234736
H  38.560270  39.048457  2.351001
C  38.031616  37.167013  4.061579
N  33.120208  40.795648  58.451923
N  39.392114  49.659436  54.898443
N  38.584680  47.047641  56.095141
N  36.170086  43.620704  58.417236
N  38.321316  44.230936  59.110974
N  37.111129  42.553118  60.283905
N  40.356923  41.705216  62.636833
N  40.116042  38.487043  1.305898
N  38.089428  40.279841  64.169480
N  37.096355  38.118976  4.055156
S  37.535722  50.756570  53.149966
S  35.313191  40.417304  0.230604
C  2.041388  9.528620  58.460273
H  2.241802  10.001390  57.657336
C  2.837260  9.756654  59.563188
C  2.537925  9.110450  60.742543
H  3.089703  9.211299  61.511436
C  1.414455  8.310724  60.777230
H  1.130536  7.920176  61.594941
C  0.705943  8.079478  59.628708
H  64.209306  7.470530  59.661468
C  6.520495  18.050035  54.177084
C  5.470253  14.984098  55.199063
H  5.524210  15.647646  54.522668
C  4.387250  14.158036  55.192639
H  3.738477  14.215205  54.503397
C  4.254926  13.239476  56.208837
H  3.513654  12.647871  56.237742
C  5.237722  13.197723  57.198698
C  6.295672  14.057830  57.095280
H  6.950227  14.035348  57.779382
C  5.141369  12.215570  58.320884
C  6.104252  11.196161  60.073857
C  4.016615  10.622542  59.434076
C  7.247635  9.854291  61.817195
H  6.487735  9.288381  61.832611
C  7.257270  10.944359  60.909554
C  8.405792  11.698478  60.845961
H  8.472596  12.416626  60.233159
C  9.457961  11.402355  61.677805
H  10.264753  11.896322  61.639906
C  9.309579  10.366244  62.573241
H  10.020660  10.200518  63.181546
C  4.851027  8.228503  0.070658
C  8.851583  5.300672  1.126040
H  9.500357  5.363622  0.436798
C  8.816896  4.188764  1.858961
H  9.455392  3.500808  1.715075
C  7.823181  4.043593  2.851392
H  7.753165  3.250291  3.365914
C  6.954723  5.111821  3.047308
C  7.069062  6.228226  2.234736
H  6.442770  6.930956  2.351001
C  5.914116  5.049513  4.061579
N  1.002708  8.678148  58.451923
N  7.274614  17.541936  54.898443
N  6.467180  14.930141  56.095141
N  4.052586  11.503204  58.417236
N  6.203816  12.113436  59.110974
N  4.993629  10.435618  60.283905
N  8.239423  9.587716  62.636833
N  7.998542  6.369543  1.305898
N  5.971928  8.162341  64.169480
N  4.978855  6.001476  4.055156
S  5.418222  18.639070  53.149966
S  3.195691  8.299804  0.230604
C  2.041388  41.646120  26.342773
H  2.241802  42.118889  25.539836
C  2.837260  41.874154  27.445688
C  2.537925  41.227950  28.625043
H  3.089703  41.328799  29.393936
C  1.414455  40.428224  28.659730
H  1.130536  40.037675  29.477441
C  0.705943  40.196978  27.511208
H  64.209306  39.588030  27.543968
C  6.520495  50.167535  22.059584
C  5.470253  47.101598  23.081563
H  5.524210  47.765146  22.405168
C  4.387250  46.275536  23.075139
H  3.738477  46.332706  22.385897
C  4.254926  45.356976  24.091337
H  3.513654  44.765372  24.120242
C  5.237722  45.315223  25.081198
C  6.295672  46.175330  24.977780
H  6.950227  46.152848  25.661883
C  5.141369  44.333070  26.203384
C  6.104252  43.313660  27.956357
C  4.016615  42.740042  27.316576
C  7.247635  41.971791  29.699695
H  6.487735  41.405881  29.715111
C  7.257270  43.061859  28.792054
C  8.405792  43.815978  28.728461
H  8.472596  44.534126  28.115659
C  9.457961  43.519855  29.560305
H  10.264753  44.013822  29.522406
C  9.309579  42.483744  30.455741
H  10.020660  42.318018  31.064046
C  4.851027  40.346004  32.188159
C  8.851583  37.418172  33.243540
H  9.500357  37.481122  32.554298
C  8.816896  36.306264  33.976461
H  9.455392  35.618308  33.832574
C  7.823181  36.161093  34.968892
H  7.753165  35.367791  35.483414
C  6.954723  37.229321  35.164808
C  7.069062  38.345726  34.352236
H  6.442770  39.048457  34.468501
C  5.914116  37.167013  36.179079
N  1.002708  40.795648  26.334423
N  7.274614  49.659436  22.780943
N  6.467180  47.047641  23.977641
N  4.052586  43.620704  26.299736
N  6.203816  44.230936  26.993474
N  4.993629  42.553118  28.166405
N  8.239423  41.705216  30.519333
N  7.998542  38.487043  33.423398
N  5.971928  40.279841  32.051980
N  4.978855  38.118976  36.172656
S  5.418222  50.756570  21.032466
S  3.195691  40.417304  32.348104
C  2.041388  38.647630  53.950976
H  2.241802  38.174861  54.753914
C  2.837260  38.419596  52.848062
C  2.537925  39.065800  51.668707
H  3.089703  38.964951  50.899814
C  1.414455  39.865526  51.634020
H  1.130536  40.256075  50.816308
C  0.705943  40.096772  52.782542
H  64.209306  40.705720  52.749782
C  6.520495  30.126215  58.234166
C  5.470253  33.192152  57.212187
H  5.524210  32.528604  57.888582
C  4.387250  34.018214  57.218611
H  3.738477  33.961044  57.907852
C  4.254926  34.936774  56.202413
H  3.513654  35.528379  56.173508
C  5.237722  34.978527  55.212552
C  6.295672  34.118420  55.315970
H  6.950227  34.140902  54.631867
C  5.141369  35.960680  54.090366
C  6.104252  36.980089  52.337393
C  4.016615  37.553708  52.977174
C  7.247635  38.321959  50.594055
H  6.487735  38.887869  50.578639
C  7.257270  37.231891  51.501696
C  8.405792  36.477772  51.565289
H  8.472596  35.759625  52.178091
C  9.457961  36.773895  50.733445
H  10.264753  36.279928  50.771344
C  9.309579  37.810006  49.838009
H  10.020660  37.975732  49.229704
C  4.851027  39.947747  48.105592
C  8.851583  42.875578  47.050210
H  9.500357  42.812627  47.739452
C  8.816896  43.987486  46.317289
H  9.455392  44.675443  46.461176
C  7.823181  44.132657  45.324858
H  7.753165  44.925959  44.810336
C  6.954723  43.064429  45.128942
C  7.069062  41.948024  45.941514
H  6.442770  41.245294  45.825249
C  5.914116  43.126737  44.114671
N  1.002708  39.498101  53.959327
N  7.274614  30.634314  57.512807
N  6.467180  33.246109  56.316109
N  4.052586  36.673046  53.994014
N  6.203816  36.062814  53.300276
N  4.993629  37.740632  52.127345
N  8.239423  38.588534  49.774417
N  7.998542  41.806707  46.870352
N  5.971928  40.013909  48.241770
N  4.978855  42.174774  44.121094
S  5.418222  29.537180  59.261284
S  3.195691  39.876446  47.945646
C  2.041388  6.530130  21.833476
H  2.241802  6.057360  22.636414
C  2.837260  6.302096  20.730562
C  2.537925  6.948300  19.551207
H  3.089703  6.847451  18.782314
C  1.414455  7.748026  19.516520
H  1.130536  8.138575  18.698809
C  0.705943  7.979272  20.665042
H  64.209306  8.588220  20.632282
C  6.520495  62.243715  26.116666
C  5.470253  1.074652  25.094687
H  5.524210  0.411104  25.771082
C  4.387250  1.900714  25.101111
H  3.738477  1.843544  25.790353
C  4.254926  2.819274  24.084913
H  3.513654  3.410878  24.056007
C  5.237722  2.861027  23.095052
C  6.295672  2.000920  23.198470
H  6.950227  2.023402  22.514367
C  5.141369  3.843180  21.972866
C  6.104252  4.862590  20.219893
C  4.016615  5.436208  20.859674
C  7.247635  6.204459  18.476555
H  6.487735  6.770369  18.461139
C  7.257270  5.114391  19.384196
C  8.405792  4.360272  19.447789
H  8.472596  3.642124  20.060590
C  9.457961  4.656395  18.615945
H  10.264753  4.162428  18.653844
C  9.309579  5.692506  17.720509
H  10.020660  5.858232  17.112204
C  4.851027  7.830246  15.988092
C  8.851583  10.758078  14.932710
H  9.500357  10.695127  15.621952
C  8.816896  11.869986  14.199789
H  9.455392  12.557943  14.343675
C  7.823181  12.015157  13.207358
H  7.753165  12.808459  12.692836
C  6.954723  10.946929  13.011442
C  7.069062  9.830524  13.824014
H  6.442770  9.127794  13.707749
C  5.914116  11.009237  11.997171
N  1.002708  7.380602  21.841827
N  7.274614  62.751814  25.395307
N  6.467180  1.128609  24.198609
N  4.052586  4.555546  21.876514
N  6.203816  3.945314  21.182776
N  4.993629  5.623132  20.009845
N  8.239423  6.471034  17.656917
N  7.998542  9.689207  14.752852
N  5.971928  7.896409  16.124270
N  4.978855  10.057274  12.003594
S  5.418222  61.654680  27.143784
S  3.195691  7.758946  15.828146
C  34.158888  38.647630  21.833476
H  34.359302  38.174861  22.636414
C  34.954760  38.419596  20.730562
C  34.655425  39.065800  19.551207
H  35.207203  38.964951  18.782314
C  33.531955  39.865526  19.516520
H  33.248036  40.256075  18.698809
C  32.823443  40.096772  20.665042
H  32.091806  40.705720  20.632282
C  38.637995  30.126215  26.116666
C  37.587753  33.192152  25.094687
H  37.641710  32.528604  25.771082
C  36.504751  34.018214  25.101111
H  35.855977  33.961044  25.790353
C  36.372426  34.936774  24.084913
H  35.631155  35.528379  24.056007
C  37.355222  34.978527  23.095052
C  38.413172  34.118420  23.198470
H  39.067727  34.140902  22.514367
C  37.258869  35.960680  21.972866
C  38.221752  36.980089  20.219893
C  36.134115  37.553708  20.859674
C  39.365135  38.321959  18.476555
H  38.605235  38.887869  18.461139
C  39.374770  37.231891  19.384196
C  40.523292  36.477772  19.447789
H  40.590097  35.759625  20.060590
C  41.575461  36.773895  18.615945
H  42.382253  36.279928  18.653844
C  41.427079  37.810006  17.720509
H  42.138160  37.975732  17.112204
C  36.968527  39.947747  15.988092
C  40.969083  42.875578  14.932710
H  41.617857  42.812627  15.621952
C  40.934396  43.987486  14.199789
H  41.572892  44.675443  14.343675
C  39.940681  44.132657  13.207358
H  39.870665  44.925959  12.692836
C  39.072223  43.064429  13.011442
C  39.186562  41.948024  13.824014
H  38.560270  41.245294  13.707749
C  38.031616  43.126737  11.997171
N  33.120208  39.498101  21.841827
N  39.392114  30.634314  25.395307
N  38.584680  33.246109  24.198609
N  36.170086  36.673046  21.876514
N  38.321316  36.062814  21.182776
N  37.111129  37.740632  20.009845
N  40.356923  38.588534  17.656917
N  40.116042  41.806707  14.752852
N  38.089428  40.013909  16.124270
N  37.096355  42.174774  12.003594
S  37.535722  29.537180  27.143784
S  35.313191  39.876446  15.828146
C  34.158888  6.530130  53.950976
H  34.359302  6.057360  54.753914
C  34.954760  6.302096  52.848062
C  34.655425  6.948300  51.668707
H  35.207203  6.847451  50.899814
C  33.531955  7.748026  51.634020
H  33.248036  8.138575  50.816308
C  32.823443  7.979272  52.782542
H  32.091806  8.588220  52.749782
C  38.637995  62.243715  58.234166
C  37.587753  1.074652  57.212187
H  37.641710  0.411104  57.888582
C  36.504751  1.900714  57.218611
H  35.855977  1.843544  57.907852
C  36.372426  2.819274  56.202413
H  35.631155  3.410878  56.173508
C  37.355222  2.861027  55.212552
C  38.413172  2.000920  55.315970
H  39.067727  2.023402  54.631867
C  37.258869  3.843180  54.090366
C  38.221752  4.862590  52.337393
C  36.134115  5.436208  52.977174
C  39.365135  6.204459  50.594055
H  38.605235  6.770369  50.578639
C  39.374770  5.114391  51.501696
C  40.523292  4.360272  51.565289
H  40.590097  3.642124  52.178091
C  41.575461  4.656395  50.733445
H  42.382253  4.162428  50.771344
C  41.427079  5.692506  49.838009
H  42.138160  5.858232  49.229704
C  36.968527  7.830246  48.105592
C  40.969083  10.758078  47.050210
H  41.617857  10.695127  47.739452
C  40.934396  11.869986  46.317289
H  41.572892  12.557943  46.461176
C  39.940681  12.015157  45.324858
H  39.870665  12.808459  44.810336
C  39.072223  10.946929  45.128942
C  39.186562  9.830524  45.941514
H  38.560270  9.127794  45.825249
C  38.031616  11.009237  44.114671
N  33.120208  7.380602  53.959327
N  39.392114  62.751814  57.512807
N  38.584680  1.128609  56.316109
N  36.170086  4.555546  53.994014
N  38.321316  3.945314  53.300276
N  37.111129  5.623132  52.127345
N  40.356923  6.471034  49.774417
N  40.116042  9.689207  46.870352
N  38.089428  7.896409  48.241770
N  37.096355  10.057274  44.121094
S  37.535722  61.654680  59.261284
S  35.313191  7.758946  47.945646
C  14.017362  6.530130  58.460273
H  13.816949  6.057360  57.657336
C  13.221490  6.302096  59.563188
C  13.520825  6.948300  60.742543
H  12.969046  6.847451  61.511436
C  14.644295  7.748026  60.777230
H  14.928214  8.138575  61.594941
C  15.352807  7.979272  59.628708
H  16.084444  8.588220  59.661468
C  9.538255  62.243715  54.177084
C  10.588497  1.074652  55.199063
H  10.534540  0.411104  54.522668
C  11.671499  1.900714  55.192639
H  12.320273  1.843544  54.503397
C  11.803824  2.819274  56.208837
H  12.545096  3.410878  56.237742
C  10.821028  2.861027  57.198698
C  9.763078  2.000920  57.095280
H  9.108523  2.023402  57.779382
C  10.917381  3.843180  58.320884
C  9.954498  4.862590  60.073857
C  12.042135  5.436208  59.434076
C  8.811115  6.204459  61.817195
H  9.571015  6.770369  61.832611
C  8.801480  5.114391  60.909554
C  7.652958  4.360272  60.845961
H  7.586153  3.642124  60.233159
C  6.600789  4.656395  61.677805
H  5.793997  4.162428  61.639906
C  6.749171  5.692506  62.573241
H  6.038090  5.858232  63.181546
C  11.207723  7.830246  0.070658
C  7.207167  10.758078  1.126040
H  6.558393  10.695127  0.436798
C  7.241854  11.869986  1.858961
H  6.603358  12.557943  1.715075
C  8.235569  12.015157  2.851392
H  8.305585  12.808459  3.365914
C  9.104027  10.946929  3.047308
C  8.989688  9.830524  2.234736
H  9.615979  9.127794  2.351001
C  10.144634  11.009237  4.061579
N  15.056042  7.380602  58.451923
N  8.784136  62.751814  54.898443
N  9.591570  1.128609  56.095141
N  12.006164  4.555546  58.417236
N  9.854934  3.945314  59.110974
N  11.065121  5.623132  60.283905
N  7.819327  6.471034  62.636833
N  8.060208  9.689207  1.305898
N  10.086822  7.896409  64.169480
N  11.079895  10.057274  4.055156
S  10.640528  61.654680  53.149966
S  12.863059  7.758946  0.230604
C  14.017362  38.647630  26.342773
H  13.816949  38.174861  25.539836
C  13.221490  38.419596  27.445688
C  13.520825  39.065800  28.625043
H  12.969046  38.964951  29.393936
C  14.644295  39.865526  28.659730
H  14.928214  40.256075  29.477441
C  15.352807  40.096772  27.511208
H  16.084444  40.705720  27.543968
C  9.538255  30.126215  22.059584
C  10.588497  33.192152  23.081563
H  10.534540  32.528604  22.405168
C  11.671499  34.018214  23.075139
H  12.320273  33.961044  22.385897
C  11.803824  34.936774  24.091337
H  12.545096  35.528379  24.120242
C  10.821028  34.978527  25.081198
C  9.763078  34.118420  24.977780
H  9.108523  34.140902  25.661883
C  10.917381  35.960680  26.203384
C  9.954498  36.980089  27.956357
C  12.042135  37.553708  27.316576
C  8.811115  38.321959  29.699695
H  9.571015  38.887869  29.715111
C  8.801480  37.231891  28.792054
C  7.652958  36.477772  28.728461
H  7.586153  35.759625  28.115659
C  6.600789  36.773895  29.560305
H  5.793997  36.279928  29.522406
C  6.749171  37.810006  30.455741
H  6.038090  37.975732  31.064046
C  11.207723  39.947747  32.188159
C  7.207167  42.875578  33.243540
H  6.558393  42.812627  32.554298
C  7.241854  43.987486  33.976461
H  6.603358  44.675443  33.832574
C  8.235569  44.132657  34.968892
H  8.305585  44.925959  35.483414
C  9.104027  43.064429  35.164808
C  8.989688  41.948024  34.352236
H  9.615979  41.245294  34.468501
C  10.144634  43.126737  36.179079
N  15.056042  39.498101  26.334423
N  8.784136  30.634314  22.780943
N  9.591570  33.246109  23.977641
N  12.006164  36.673046  26.299736
N  9.854934  36.062814  26.993474
N  11.065121  37.740632  28.166405
N  7.819327  38.588534  30.519333
N  8.060208  41.806707  33.423398
N  10.086822  40.013909  32.051980
N  11.079895  42.174774  36.172656
S  10.640528  29.537180  21.032466
S  12.863059  39.876446  32.348104
C  46.134862  6.530130  26.342773
H  45.934448  6.057360  25.539836
C  45.338990  6.302096  27.445688
C  45.638325  6.948300  28.625043
H  45.086546  6.847451  29.393936
C  46.761795  7.748026  28.659730
H  47.045714  8.138575  29.477441
C  47.470307  7.979272  27.511208
H  48.201944  8.588220  27.543968
C  41.655755  62.243715  22.059584
C  42.705997  1.074652  23.081563
H  42.652040  0.411104  22.405168
C  43.788999  1.900714  23.075139
H  44.437773  1.843544  22.385897
C  43.921324  2.819274  24.091337
H  44.662596  3.410878  24.120242
C  42.938528  2.861027  25.081198
C  41.880578  2.000920  24.977780
H  41.226023  2.023402  25.661883
C  43.034881  3.843180  26.203384
C  42.071998  4.862590  27.956357
C  44.159635  5.436208  27.316576
C  40.928615  6.204459  29.699695
H  41.688515  6.770369  29.715111
C  40.918980  5.114391  28.792054
C  39.770458  4.360272  28.728461
H  39.703654  3.642124  28.115659
C  38.718289  4.656395  29.560305
H  37.911497  4.162428  29.522406
C  38.866671  5.692506  30.455741
H  38.155590  5.858232  31.064046
C  43.325223  7.830246  32.188159
C  39.324667  10.758078  33.243540
H  38.675894  10.695127  32.554298
C  39.359354  11.869986  33.976461
H  38.720858  12.557943  33.832574
C  40.353069  12.015157  34.968892
H  40.423085  12.808459  35.483414
C  41.221527  10.946929  35.164808
C  41.107188  9.830524  34.352236
H  41.733480  9.127794  34.468501
C  42.262134  11.009237  36.179079
N  47.173542  7.380602  26.334423
N  40.901636  62.751814  22.780943
N  41.709070  1.128609  23.977641
N  44.123664  4.555546  26.299736
N  41.972434  3.945314  26.993474
N  43.182621  5.623132  28.166405
N  39.936827  6.471034  30.519333
N  40.177708  9.689207  33.423398
N  42.204322  7.896409  32.051980
N  43.197395  10.057274  36.172656
S  42.758028  61.654680  21.032466
S  44.980559  7.758946  32.348104
C  46.134862  38.647630  58.460273
H  45.934448  38.174861  57.657336
C  45.338990  38.419596  59.563188
C  45.638325  39.065800  60.742543
H  45.086546  38.964951  61.511436
C  46.761795  39.865526  60.777230
H  47.045714  40.256075  61.594941
C  47.470307  40.096772  59.628708
H  48.201944  40.705720  59.661468
C  41.655755  30.126215  54.177084
C  42.705997  33.192152  55.199063
H  42.652040  32.528604  54.522668
C  43.788999  34.018214  55.192639
H  44.437773  33.961044  54.503397
C  43.921324  34.936774  56.208837
H  44.662596  35.528379  56.237742
C  42.938528  34.978527  57.198698
C  41.880578  34.118420  57.095280
H  41.226023  34.140902  57.779382
C  43.034881  35.960680  58.320884
C  42.071998  36.980089  60.073857
C  44.159635  37.553708  59.434076
C  40.928615  38.321959  61.817195
H  41.688515  38.887869  61.832611
C  40.918980  37.231891  60.909554
C  39.770458  36.477772  60.845961
H  39.703654  35.759625  60.233159
C  38.718289  36.773895  61.677805
H  37.911497  36.279928  61.639906
C  38.866671  37.810006  62.573241
H  38.155590  37.975732  63.181546
C  43.325223  39.947747  0.070658
C  39.324667  42.875578  1.126040
H  38.675894  42.812627  0.436798
C  39.359354  43.987486  1.858961
H  38.720858  44.675443  1.715075
C  40.353069  44.132657  2.851392
H  40.423085  44.925959  3.365914
C  41.221527  43.064429  3.047308
C  41.107188  41.948024  2.234736
H  41.733480  41.245294  2.351001
C  42.262134  43.126737  4.061579
N  47.173542  39.498101  58.451923
N  40.901636  30.634314  54.898443
N  41.709070  33.246109  56.095141
N  44.123664  36.673046  58.417236
N  41.972434  36.062814  59.110974
N  43.182621  37.740632  60.283905
N  39.936827  38.588534  62.636833
N  40.177708  41.806707  1.305898
N  42.204322  40.013909  64.169480
N  43.197395  42.174774  4.055156
S  42.758028  29.537180  53.149966
S  44.980559  39.876446  0.230604
C  9.528620  26.342773  34.158888
H  10.001390  25.539836  34.359302
C  9.756654  27.445688  34.954760
C  9.110450  28.625043  34.655425
H  9.211299  29.393936  35.207203
C  8.310724  28.659730  33.531955
H  7.920176  29.477441  33.248036
C  8.079478  27.511208  32.823443
H  7.470530  27.543968  32.091806
C  18.050035  22.059584  38.637995
C  14.984098  23.081563  37.587753
H  15.647646  22.405168  37.641710
C  14.158036  23.075139  36.504751
H  14.215205  22.385897  35.855977
C  13.239476  24.091337  36.372426
H  12.647871  24.120242  35.631155
C  13.197723  25.081198  37.355222
C  14.057830  24.977780  38.413172
H  14.035348  25.661883  39.067727
C  12.215570  26.203384  37.258869
C  11.196161  27.956357  38.221752
C  10.622542  27.316576  36.134115
C  9.854291  29.699695  39.365135
H  9.288381  29.715111  38.605235
C  10.944359  28.792054  39.374770
C  11.698478  28.728461  40.523292
H  12.416626  28.115659  40.590097
C  11.402355  29.560305  41.575461
H  11.896322  29.522406  42.382253
C  10.366244  30.455741  41.427079
H  10.200518  31.064046  42.138160
C  8.228503  32.188159  36.968527
C  5.300672  33.243540  40.969083
H  5.363622  32.554298  41.617857
C  4.188764  33.976461  40.934396
H  3.500808  33.832574  41.572892
C  4.043593  34.968892  39.940681
H  3.250291  35.483414  39.870665
C  5.111821  35.164808  39.072223
C  6.228226  34.352236  39.186562
H  6.930956  34.468501  38.560270
C  5.049513  36.179079  38.031616
N  8.678148  26.334423  33.120208
N  17.541936  22.780943  39.392114
N  14.930141  23.977641  38.584680
N  11.503204  26.299736  36.170086
N  12.113436  26.993474  38.321316
N  10.435618  28.166405  37.111129
N  9.587716  30.519333  40.356923
N  6.369543  33.423398  40.116042
N  8.162341  32.051980  38.089428
N  6.001476  36.172656  37.096355
S  18.639070  21.032466  37.535722
S  8.299804  32.348104  35.313191
C  9.528620  58.460273  2.041388
H  10.001390  57.657336  2.241802
C  9.756654  59.563188  2.837260
C  9.110450  60.742543  2.537925
H  9.211299  61.511436  3.089703
C  8.310724  60.777230  1.414455
H  7.920176  61.594941  1.130536
C  8.079478  59.628708  0.705943
H  7.470530  59.661468  64.209306
C  18.050035  54.177084  6.520495
C  14.984098  55.199063  5.470253
H  15.647646  54.522668  5.524210
C  14.158036  55.192639  4.387250
H  14.215205  54.503397  3.738477
C  13.239476  56.208837  4.254926
H  12.647871  56.237742  3.513654
C  13.197723  57.198698  5.237722
C  14.057830  57.095280  6.295672
H  14.035348  57.779382  6.950227
C  12.215570  58.320884  5.141369
C  11.196161  60.073857  6.104252
C  10.622542  59.434076  4.016615
C  9.854291  61.817195  7.247635
H  9.288381  61.832611  6.487735
C  10.944359  60.909554  7.257270
C  11.698478  60.845961  8.405792
H  12.416626  60.233159  8.472596
C  11.402355  61.677805  9.457961
H  11.896322  61.639906  10.264753
C  10.366244  62.573241  9.309579
H  10.200518  63.181546  10.020660
C  8.228503  0.070658  4.851027
C  5.300672  1.126040  8.851583
H  5.363622  0.436798  9.500357
C  4.188764  1.858961  8.816896
H  3.500808  1.715075  9.455392
C  4.043593  2.851392  7.823181
H  3.250291  3.365914  7.753165
C  5.111821  3.047308  6.954723
C  6.228226  2.234736  7.069062
H  6.930956  2.351001  6.442770
C  5.049513  4.061579  5.914116
N  8.678148  58.451923  1.002708
N  17.541936  54.898443  7.274614
N  14.930141  56.095141  6.467180
N  11.503204  58.417236  4.052586
N  12.113436  59.110974  6.203816
N  10.435618  60.283905  4.993629
N  9.587716  62.636833  8.239423
N  6.369543  1.305898  7.998542
N  8.162341  64.169480  5.971928
N  6.001476  4.055156  4.978855
S  18.639070  53.149966  5.418222
S  8.299804  0.230604  3.195691
C  41.646120  26.342773  2.041388
H  42.118889  25.539836  2.241802
C  41.874154  27.445688  2.837260
C  41.227950  28.625043  2.537925
H  41.328799  29.393936  3.089703
C  40.428224  28.659730  1.414455
H  40.037675  29.477441  1.130536
C  40.196978  27.511208  0.705943
H  39.588030  27.543968  64.209306
C  50.167535  22.059584  6.520495
C  47.101598  23.081563  5.470253
H  47.765146  22.405168  5.524210
C  46.275536  23.075139  4.387250
H  46.332706  22.385897  3.738477
C  45.356976  24.091337  4.254926
H  44.765372  24.120242  3.513654
C  45.315223  25.081198  5.237722
C  46.175330  24.977780  6.295672
H  46.152848  25.661883  6.950227
C  44.333070  26.203384  5.141369
C  43.313660  27.956357  6.104252
C  42.740042  27.316576  4.016615
C  41.971791  29.699695  7.247635
H  41.405881  29.715111  6.487735
C  43.061859  28.792054  7.257270
C  43.815978  28.728461  8.405792
H  44.534126  28.115659  8.472596
C  43.519855  29.560305  9.457961
H  44.013822  29.522406  10.264753
C  42.483744  30.455741  9.309579
H  42.318018  31.064046  10.020660
C  40.346004  32.188159  4.851027
C  37.418172  33.243540  8.851583
H  37.481122  32.554298  9.500357
C  36.306264  33.976461  8.816896
H  35.618308  33.832574  9.455392
C  36.161093  34.968892  7.823181
H  35.367791  35.483414  7.753165
C  37.229321  35.164808  6.954723
C  38.345726  34.352236  7.069062
H  39.048457  34.468501  6.442770
C  37.167013  36.179079  5.914116
N  40.795648  26.334423  1.002708
N  49.659436  22.780943  7.274614
N  47.047641  23.977641  6.467180
N  43.620704  26.299736  4.052586
N  44.230936  26.993474  6.203816
N  42.553118  28.166405  4.993629
N  41.705216  30.519333  8.239423
N  38.487043  33.423398  7.998542
N  40.279841  32.051980  5.971928
N  38.118976  36.172656  4.978855
S  50.756570  21.032466  5.418222
S  40.417304  32.348104  3.195691
C  41.646120  58.460273  34.158888
H  42.118889  57.657336  34.359302
C  41.874154  59.563188  34.954760
C  41.227950  60.742543  34.655425
H  41.328799  61.511436  35.207203
C  40.428224  60.777230  33.531955
H  40.037675  61.594941  33.248036
C  40.196978  59.628708  32.823443
H  39.588030  59.661468  32.091806
C  50.167535  54.177084  38.637995
C  47.101598  55.199063  37.587753
H  47.765146  54.522668  37.641710
C  46.275536  55.192639  36.504751
H  46.332706  54.503397  35.855977
C  45.356976  56.208837  36.372426
H  44.765372  56.237742  35.631155
C  45.315223  57.198698  37.355222
C  46.175330  57.095280  38.413172
H  46.152848  57.779382  39.067727
C  44.333070  58.320884  37.258869
C  43.313660  60.073857  38.221752
C  42.740042  59.434076  36.134115
C  41.971791  61.817195  39.365135
H  41.405881  61.832611  38.605235
C  43.061859  60.909554  39.374770
C  43.815978  60.845961  40.523292
H  44.534126  60.233159  40.590097
C  43.519855  61.677805  41.575461
H  44.013822  61.639906  42.382253
C  42.483744  62.573241  41.427079
H  42.318018  63.181546  42.138160
C  40.346004  0.070658  36.968527
C  37.418172  1.126040  40.969083
H  37.481122  0.436798  41.617857
C  36.306264  1.858961  40.934396
H  35.618308  1.715075  41.572892
C  36.161093  2.851392  39.940681
H  35.367791  3.365914  39.870665
C  37.229321  3.047308  39.072223
C  38.345726  2.234736  39.186562
H  39.048457  2.351001  38.560270
C  37.167013  4.061579  38.031616
N  40.795648  58.451923  33.120208
N  49.659436  54.898443  39.392114
N  47.047641  56.095141  38.584680
N  43.620704  58.417236  36.170086
N  44.230936  59.110974  38.321316
N  42.553118  60.283905  37.111129
N  41.705216  62.636833  40.356923
N  38.487043  1.305898  40.116042
N  40.279841  64.169480  38.089428
N  38.118976  4.055156  37.096355
S  50.756570  53.149966  37.535722
S  40.417304  0.230604  35.313191
C  41.646120  21.833476  46.134862
H  42.118889  22.636414  45.934448
C  41.874154  20.730562  45.338990
C  41.227950  19.551207  45.638325
H  41.328799  18.782314  45.086546
C  40.428224  19.516520  46.761795
H  40.037675  18.698809  47.045714
C  40.196978  20.665042  47.470307
H  39.588030  20.632282  48.201944
C  50.167535  26.116666  41.655755
C  47.101598  25.094687  42.705997
H  47.765146  25.771082  42.652040
C  46.275536  25.101111  43.788999
H  46.332706  25.790353  44.437773
C  45.356976  24.084913  43.921324
H  44.765372  24.056007  44.662596
C  45.315223  23.095052  42.938528
C  46.175330  23.198470  41.880578
H  46.152848  22.514367  41.226023
C  44.333070  21.972866  43.034881
C  43.313660  20.219893  42.071998
C  42.740042  20.859674  44.159635
C  41.971791  18.476555  40.928615
H  41.405881  18.461139  41.688515
C  43.061859  19.384196  40.918980
C  43.815978  19.447789  39.770458
H  44.534126  20.060590  39.703654
C  43.519855  18.615945  38.718289
H  44.013822  18.653844  37.911497
C  42.483744  17.720509  38.866671
H  42.318018  17.112204  38.155590
C  40.346004  15.988092  43.325223
C  37.418172  14.932710  39.324667
H  37.481122  15.621952  38.675894
C  36.306264  14.199789  39.359354
H  35.618308  14.343675  38.720858
C  36.161093  13.207358  40.353069
H  35.367791  12.692836  40.423085
C  37.229321  13.011442  41.221527
C  38.345726  13.824014  41.107188
H  39.048457  13.707749  41.733480
C  37.167013  11.997171  42.262134
N  40.795648  21.841827  47.173542
N  49.659436  25.395307  40.901636
N  47.047641  24.198609  41.709070
N  43.620704  21.876514  44.123664
N  44.230936  21.182776  41.972434
N  42.553118  20.009845  43.182621
N  41.705216  17.656917  39.936827
N  38.487043  14.752852  40.177708
N  40.279841  16.124270  42.204322
N  38.118976  12.003594  43.197395
S  50.756570  27.143784  42.758028
S  40.417304  15.828146  44.980559
C  41.646120  53.950976  14.017362
H  42.118889  54.753914  13.816949
C  41.874154  52.848062  13.221490
C  41.227950  51.668707  13.520825
H  41.328799  50.899814  12.969046
C  40.428224  51.634020  14.644295
H  40.037675  50.816308  14.928214
C  40.196978  52.782542  15.352807
H  39.588030  52.749782  16.084444
C  50.167535  58.234166  9.538255
C  47.101598  57.212187  10.588497
H  47.765146  57.888582  10.534540
C  46.275536  57.218611  11.671499
H  46.332706  57.907852  12.320273
C  45.356976  56.202413  11.803824
H  44.765372  56.173508  12.545096
C  45.315223  55.212552  10.821028
C  46.175330  55.315970  9.763078
H  46.152848  54.631867  9.108523
C  44.333070  54.090366  10.917381
C  43.313660  52.337393  9.954498
C  42.740042  52.977174  12.042135
C  41.971791  50.594055  8.811115
H  41.405881  50.578639  9.571015
C  43.061859  51.501696  8.801480
C  43.815978  51.565289  7.652958
H  44.534126  52.178091  7.586153
C  43.519855  50.733445  6.600789
H  44.013822  50.771344  5.793997
C  42.483744  49.838009  6.749171
H  42.318018  49.229704  6.038090
C  40.346004  48.105592  11.207723
C  37.418172  47.050210  7.207167
H  37.481122  47.739452  6.558393
C  36.306264  46.317289  7.241854
H  35.618308  46.461176  6.603358
C  36.161093  45.324858  8.235569
H  35.367791  44.810336  8.305585
C  37.229321  45.128942  9.104027
C  38.345726  45.941514  8.989688
H  39.048457  45.825249  9.615979
C  37.167013  44.114671  10.144634
N  40.795648  53.959327  15.056042
N  49.659436  57.512807  8.784136
N  47.047641  56.316109  9.591570
N  43.620704  53.994014  12.006164
N  44.230936  53.300276  9.854934
N  42.553118  52.127345  11.065121
N  41.705216  49.774417  7.819327
N  38.487043  46.870352  8.060208
N  40.279841  48.241770  10.086822
N  38.118976  44.121094  11.079895
S  50.756570  59.261284  10.640528
S  40.417304  47.945646  12.863059
C  9.528620  21.833476  14.017362
H  10.001390  22.636414  13.816949
C  9.756654  20.730562  13.221490
C  9.110450  19.551207  13.520825
H  9.211299  18.782314  12.969046
C  8.310724  19.516520  14.644295
H  7.920176  18.698809  14.928214
C  8.079478  20.665042  15.352807
H  7.470530  20.632282  16.084444
C  18.050035  26.116666  9.538255
C  14.984098  25.094687  10.588497
H  15.647646  25.771082  10.534540
C  14.158036  25.101111  11.671499
H  14.215205  25.790353  12.320273
C  13.239476  24.084913  11.803824
H  12.647871  24.056007  12.545096
C  13.197723  23.095052  10.821028
C  14.057830  23.198470  9.763078
H  14.035348  22.514367  9.108523
C  12.215570  21.972866  10.917381
C  11.196161  20.219893  9.954498
C  10.622542  20.859674  12.042135
C  9.854291  18.476555  8.811115
H  9.288381  18.461139  9.571015
C  10.944359  19.384196  8.801480
C  11.698478  19.447789  7.652958
H  12.416626  20.060590  7.586153
C  11.402355  18.615945  6.600789
H  11.896322  18.653844  5.793997
C  10.366244  17.720509  6.749171
H  10.200518  17.112204  6.038090
C  8.228503  15.988092  11.207723
C  5.300672  14.932710  7.207167
H  5.363622  15.621952  6.558393
C  4.188764  14.199789  7.241854
H  3.500808  14.343675  6.603358
C  4.043593  13.207358  8.235569
H  3.250291  12.692836  8.305585
C  5.111821  13.011442  9.104027
C  6.228226  13.824014  8.989688
H  6.930956  13.707749  9.615979
C  5.049513  11.997171  10.144634
N  8.678148  21.841827  15.056042
N  17.541936  25.395307  8.784136
N  14.930141  24.198609  9.591570
N  11.503204  21.876514  12.006164
N  12.113436  21.182776  9.854934
N  10.435618  20.009845  11.065121
N  9.587716  17.656917  7.819327
N  6.369543  14.752852  8.060208
N  8.162341  16.124270  10.086822
N  6.001476  12.003594  11.079895
S  18.639070  27.143784  10.640528
S  8.299804  15.828146  12.863059
C  9.528620  53.950976  46.134862
H  10.001390  54.753914  45.934448
C  9.756654  52.848062  45.338990
C  9.110450  51.668707  45.638325
H  9.211299  50.899814  45.086546
C  8.310724  51.634020  46.761795
H  7.920176  50.816308  47.045714
C  8.079478  52.782542  47.470307
H  7.470530  52.749782  48.201944
C  18.050035  58.234166  41.655755
C  14.984098  57.212187  42.705997
H  15.647646  57.888582  42.652040
C  14.158036  57.218611  43.788999
H  14.215205  57.907852  44.437773
C  13.239476  56.202413  43.921324
H  12.647871  56.173508  44.662596
C  13.197723  55.212552  42.938528
C  14.057830  55.315970  41.880578
H  14.035348  54.631867  41.226023
C  12.215570  54.090366  43.034881
C  11.196161  52.337393  42.071998
C  10.622542  52.977174  44.159635
C  9.854291  50.594055  40.928615
H  9.288381  50.578639  41.688515
C  10.944359  51.501696  40.918980
C  11.698478  51.565289  39.770458
H  12.416626  52.178091  39.703654
C  11.402355  50.733445  38.718289
H  11.896322  50.771344  37.911497
C  10.366244  49.838009  38.866671
H  10.200518  49.229704  38.155590
C  8.228503  48.105592  43.325223
C  5.300672  47.050210  39.324667
H  5.363622  47.739452  38.675894
C  4.188764  46.317289  39.359354
H  3.500808  46.461176  38.720858
C  4.043593  45.324858  40.353069
H  3.250291  44.810336  40.423085
C  5.111821  45.128942  41.221527
C  6.228226  45.941514  41.107188
H  6.930956  45.825249  41.733480
C  5.049513  44.114671  42.262134
N  8.678148  53.959327  47.173542
N  17.541936  57.512807  40.901636
N  14.930141  56.316109  41.709070
N  11.503204  53.994014  44.123664
N  12.113436  53.300276  41.972434
N  10.435618  52.127345  43.182621
N  9.587716  49.774417  39.936827
N  6.369543  46.870352  40.177708
N  8.162341  48.241770  42.204322
N  6.001476  44.121094  43.197395
S  18.639070  59.261284  42.758028
S  8.299804  47.945646  44.980559
C  6.530130  58.460273  14.017362
H  6.057360  57.657336  13.816949
C  6.302096  59.563188  13.221490
C  6.948300  60.742543  13.520825
H  6.847451  61.511436  12.969046
C  7.748026  60.777230  14.644295
H  8.138575  61.594941  14.928214
C  7.979272  59.628708  15.352807
H  8.588220  59.661468  16.084444
C  62.243715  54.177084  9.538255
C  1.074652  55.199063  10.588497
H  0.411104  54.522668  10.534540
C  1.900714  55.192639  11.671499
H  1.843544  54.503397  12.320273
C  2.819274  56.208837  11.803824
H  3.410878  56.237742  12.545096
C  2.861027  57.198698  10.821028
C  2.000920  57.095280  9.763078
H  2.023402  57.779382  9.108523
C  3.843180  58.320884  10.917381
C  4.862590  60.073857  9.954498
C  5.436208  59.434076  12.042135
C  6.204459  61.817195  8.811115
H  6.770369  61.832611  9.571015
C  5.114391  60.909554  8.801480
C  4.360272  60.845961  7.652958
H  3.642124  60.233159  7.586153
C  4.656395  61.677805  6.600789
H  4.162428  61.639906  5.793997
C  5.692506  62.573241  6.749171
H  5.858232  63.181546  6.038090
C  7.830246  0.070658  11.207723
C  10.758078  1.126040  7.207167
H  10.695127  0.436798  6.558393
C  11.869986  1.858961  7.241854
H  12.557943  1.715075  6.603358
C  12.015157  2.851392  8.235569
H  12.808459  3.365914  8.305585
C  10.946929  3.047308  9.104027
C  9.830524  2.234736  8.989688
H  9.127794  2.351001  9.615979
C  11.009237  4.061579  10.144634
N  7.380602  58.451923  15.056042
N  62.751814  54.898443  8.784136
N  1.128609  56.095141  9.591570
N  4.555546  58.417236  12.006164
N  3.945314  59.110974  9.854934
N  5.623132  60.283905  11.065121
N  6.471034  62.636833  7.819327
N  9.689207  1.305898  8.060208
N  7.896409  64.169480  10.086822
N  10.057274  4.055156  11.079895
S  61.654680  53.149966  10.640528
S  7.758946  0.230604  12.863059
C  6.530130  26.342773  46.134862
H  6.057360  25.539836  45.934448
C  6.302096  27.445688  45.338990
C  6.948300  28.625043  45.638325
H  6.847451  29.393936  45.086546
C  7.748026  28.659730  46.761795
H  8.138575  29.477441  47.045714
C  7.979272  27.511208  47.470307
H  8.588220  27.543968  48.201944
C  62.243715  22.059584  41.655755
C  1.074652  23.081563  42.705997
H  0.411104  22.405168  42.652040
C  1.900714  23.075139  43.788999
H  1.843544  22.385897  44.437773
C  2.819274  24.091337  43.921324
H  3.410878  24.120242  44.662596
C  2.861027  25.081198  42.938528
C  2.000920  24.977780  41.880578
H  2.023402  25.661883  41.226023
C  3.843180  26.203384  43.034881
C  4.862590  27.956357  42.071998
C  5.436208  27.316576  44.159635
C  6.204459  29.699695  40.928615
H  6.770369  29.715111  41.688515
C  5.114391  28.792054  40.918980
C  4.360272  28.728461  39.770458
H  3.642124  28.115659  39.703654
C  4.656395  29.560305  38.718289
H  4.162428  29.522406  37.911497
C  5.692506  30.455741  38.866671
H  5.858232  31.064046  38.155590
C  7.830246  32.188159  43.325223
C  10.758078  33.243540  39.324667
H  10.695127  32.554298  38.675894
C  11.869986  33.976461  39.359354
H  12.557943  33.832574  38.720858
C  12.015157  34.968892  40.353069
H  12.808459  35.483414  40.423085
C  10.946929  35.164808  41.221527
C  9.830524  34.352236  41.107188
H  9.127794  34.468501  41.733480
C  11.009237  36.179079  42.262134
N  7.380602  26.334423  47.173542
N  62.751814  22.780943  40.901636
N  1.128609  23.977641  41.709070
N  4.555546  26.299736  44.123664
N  3.945314  26.993474  41.972434
N  5.623132  28.166405  43.182621
N  6.471034  30.519333  39.936827
N  9.689207  33.423398  40.177708
N  7.896409  32.051980  42.204322
N  10.057274  36.172656  43.197395
S  61.654680  21.032466  42.758028
S  7.758946  32.348104  44.980559
C  38.647630  58.460273  46.134862
H  38.174861  57.657336  45.934448
C  38.419596  59.563188  45.338990
C  39.065800  60.742543  45.638325
H  38.964951  61.511436  45.086546
C  39.865526  60.777230  46.761795
H  40.256075  61.594941  47.045714
C  40.096772  59.628708  47.470307
H  40.705720  59.661468  48.201944
C  30.126215  54.177084  41.655755
C  33.192152  55.199063  42.705997
H  32.528604  54.522668  42.652040
C  34.018214  55.192639  43.788999
H  33.961044  54.503397  44.437773
C  34.936774  56.208837  43.921324
H  35.528379  56.237742  44.662596
C  34.978527  57.198698  42.938528
C  34.118420  57.095280  41.880578
H  34.140902  57.779382  41.226023
C  35.960680  58.320884  43.034881
C  36.980089  60.073857  42.071998
C  37.553708  59.434076  44.159635
C  38.321959  61.817195  40.928615
H  38.887869  61.832611  41.688515
C  37.231891  60.909554  40.918980
C  36.477772  60.845961  39.770458
H  35.759625  60.233159  39.703654
C  36.773895  61.677805  38.718289
H  36.279928  61.639906  37.911497
C  37.810006  62.573241  38.866671
H  37.975732  63.181546  38.155590
C  39.947747  0.070658  43.325223
C  42.875578  1.126040  39.324667
H  42.812627  0.436798  38.675894
C  43.987486  1.858961  39.359354
H  44.675443  1.715075  38.720858
C  44.132657  2.851392  40.353069
H  44.925959  3.365914  40.423085
C  43.064429  3.047308  41.221527
C  41.948024  2.234736  41.107188
H  41.245294  2.351001  41.733480
C  43.126737  4.061579  42.262134
N  39.498101  58.451923  47.173542
N  30.634314  54.898443  40.901636
N  33.246109  56.095141  41.709070
N  36.673046  58.417236  44.123664
N  36.062814  59.110974  41.972434
N  37.740632  60.283905  43.182621
N  38.588534  62.636833  39.936827
N  41.806707  1.305898  40.177708
N  40.013909  64.169480  42.204322
N  42.174774  4.055156  43.197395
S  29.537180  53.149966  42.758028
S  39.876446  0.230604  44.980559
C  38.647630  26.342773  14.017362
H  38.174861  25.539836  13.816949
C  38.419596  27.445688  13.221490
C  39.065800  28.625043  13.520825
H  38.964951  29.393936  12.969046
C  39.865526  28.659730  14.644295
H  40.256075  29.477441  14.928214
C  40.096772  27.511208  15.352807
H  40.705720  27.543968  16.084444
C  30.126215  22.059584  9.538255
C  33.192152  23.081563  10.588497
H  32.528604  22.405168  10.534540
C  34.018214  23.075139  11.671499
H  33.961044  22.385897  12.320273
C  34.936774  24.091337  11.803824
H  35.528379  24.120242  12.545096
C  34.978527  25.081198  10.821028
C  34.118420  24.977780  9.763078
H  34.140902  25.661883  9.108523
C  35.960680  26.203384  10.917381
C  36.980089  27.956357  9.954498
C  37.553708  27.316576  12.042135
C  38.321959  29.699695  8.811115
H  38.887869  29.715111  9.571015
C  37.231891  28.792054  8.801480
C  36.477772  28.728461  7.652958
H  35.759625  28.115659  7.586153
C  36.773895  29.560305  6.600789
H  36.279928  29.522406  5.793997
C  37.810006  30.455741  6.749171
H  37.975732  31.064046  6.038090
C  39.947747  32.188159  11.207723
C  42.875578  33.243540  7.207167
H  42.812627  32.554298  6.558393
C  43.987486  33.976461  7.241854
H  44.675443  33.832574  6.603358
C  44.132657  34.968892  8.235569
H  44.925959  35.483414  8.305585
C  43.064429  35.164808  9.104027
C  41.948024  34.352236  8.989688
H  41.245294  34.468501  9.615979
C  43.126737  36.179079  10.144634
N  39.498101  26.334423  15.056042
N  30.634314  22.780943  8.784136
N  33.246109  23.977641  9.591570
N  36.673046  26.299736  12.006164
N  36.062814  26.993474  9.854934
N  37.740632  28.166405  11.065121
N  38.588534  30.519333  7.819327
N  41.806707  33.423398  8.060208
N  40.013909  32.051980  10.086822
N  42.174774  36.172656  11.079895
S  29.537180  21.032466  10.640528
S  39.876446  32.348104  12.863059
C  38.647630  53.950976  2.041388
H  38.174861  54.753914  2.241802
C  38.419596  52.848062  2.837260
C  39.065800  51.668707  2.537925
H  38.964951  50.899814  3.089703
C  39.865526  51.634020  1.414455
H  40.256075  50.816308  1.130536
C  40.096772  52.782542  0.705943
H  40.705720  52.749782  64.209306
C  30.126215  58.234166  6.520495
C  33.192152  57.212187  5.470253
H  32.528604  57.888582  5.524210
C  34.018214  57.218611  4.387250
H  33.961044  57.907852  3.738477
C  34.936774  56.202413  4.254926
H  35.528379  56.173508  3.513654
C  34.978527  55.212552  5.237722
C  34.118420  55.315970  6.295672
H  34.140902  54.631867  6.950227
C  35.960680  54.090366  5.141369
C  36.980089  52.337393  6.104252
C  37.553708  52.977174  4.016615
C  38.321959  50.594055  7.247635
H  38.887869  50.578639  6.487735
C  37.231891  51.501696  7.257270
C  36.477772  51.565289  8.405792
H  35.759625  52.178091  8.472596
C  36.773895  50.733445  9.457961
H  36.279928  50.771344  10.264753
C  37.810006  49.838009  9.309579
H  37.975732  49.229704  10.020660
C  39.947747  48.105592  4.851027
C  42.875578  47.050210  8.851583
H  42.812627  47.739452  9.500357
C  43.987486  46.317289  8.816896
H  44.675443  46.461176  9.455392
C  44.132657  45.324858  7.823181
H  44.925959  44.810336  7.753165
C  43.064429  45.128942  6.954723
C  41.948024  45.941514  7.069062
H  41.245294  45.825249  6.442770
C  43.126737  44.114671  5.914116
N  39.498101  53.959327  1.002708
N  30.634314  57.512807  7.274614
N  33.246109  56.316109  6.467180
N  36.673046  53.994014  4.052586
N  36.062814  53.300276  6.203816
N  37.740632  52.127345  4.993629
N  38.588534  49.774417  8.239423
N  41.806707  46.870352  7.998542
N  40.013909  48.241770  5.971928
N  42.174774  44.121094  4.978855
S  29.537180  59.261284  5.418222
S  39.876446  47.945646  3.195691
C  38.647630  21.833476  34.158888
H  38.174861  22.636414  34.359302
C  38.419596  20.730562  34.954760
C  39.065800  19.551207  34.655425
H  38.964951  18.782314  35.207203
C  39.865526  19.516520  33.531955
H  40.256075  18.698809  33.248036
C  40.096772  20.665042  32.823443
H  40.705720  20.632282  32.091806
C  30.126215  26.116666  38.637995
C  33.192152  25.094687  37.587753
H  32.528604  25.771082  37.641710
C  34.018214  25.101111  36.504751
H  33.961044  25.790353  35.855977
C  34.936774  24.084913  36.372426
H  35.528379  24.056007  35.631155
C  34.978527  23.095052  37.355222
C  34.118420  23.198470  38.413172
H  34.140902  22.514367  39.067727
C  35.960680  21.972866  37.258869
C  36.980089  20.219893  38.221752
C  37.553708  20.859674  36.134115
C  38.321959  18.476555  39.365135
H  38.887869  18.461139  38.605235
C  37.231891  19.384196  39.374770
C  36.477772  19.447789  40.523292
H  35.759625  20.060590  40.590097
C  36.773895  18.615945  41.575461
H  36.279928  18.653844  42.382253
C  37.810006  17.720509  41.427079
H  37.975732  17.112204  42.138160
C  39.947747  15.988092  36.968527
C  42.875578  14.932710  40.969083
H  42.812627  15.621952  41.617857
C  43.987486  14.199789  40.934396
H  44.675443  14.343675  41.572892
C  44.132657  13.207358  39.940681
H  44.925959  12.692836  39.870665
C  43.064429  13.011442  39.072223
C  41.948024  13.824014  39.186562
H  41.245294  13.707749  38.560270
C  43.126737  11.997171  38.031616
N  39.498101  21.841827  33.120208
N  30.634314  25.395307  39.392114
N  33.246109  24.198609  38.584680
N  36.673046  21.876514  36.170086
N  36.062814  21.182776  38.321316
N  37.740632  20.009845  37.111129
N  38.588534  17.656917  40.356923
N  41.806707  14.752852  40.116042
N  40.013909  16.124270  38.089428
N  42.174774  12.003594  37.096355
S  29.537180  27.143784  37.535722
S  39.876446  15.828146  35.313191
C  6.530130  53.950976  34.158888
H  6.057360  54.753914  34.359302
C  6.302096  52.848062  34.954760
C  6.948300  51.668707  34.655425
H  6.847451  50.899814  35.207203
C  7.748026  51.634020  33.531955
H  8.138575  50.816308  33.248036
C  7.979272  52.782542  32.823443
H  8.588220  52.749782  32.091806
C  62.243715  58.234166  38.637995
C  1.074652  57.212187  37.587753
H  0.411104  57.888582  37.641710
C  1.900714  57.218611  36.504751
H  1.843544  57.907852  35.855977
C  2.819274  56.202413  36.372426
H  3.410878  56.173508  35.631155
C  2.861027  55.212552  37.355222
C  2.000920  55.315970  38.413172
H  2.023402  54.631867  39.067727
C  3.843180  54.090366  37.258869
C  4.862590  52.337393  38.221752
C  5.436208  52.977174  36.134115
C  6.204459  50.594055  39.365135
H  6.770369  50.578639  38.605235
C  5.114391  51.501696  39.374770
C  4.360272  51.565289  40.523292
H  3.642124  52.178091  40.590097
C  4.656395  50.733445  41.575461
H  4.162428  50.771344  42.382253
C  5.692506  49.838009  41.427079
H  5.858232  49.229704  42.138160
C  7.830246  48.105592  36.968527
C  10.758078  47.050210  40.969083
H  10.695127  47.739452  41.617857
C  11.869986  46.317289  40.934396
H  12.557943  46.461176  41.572892
C  12.015157  45.324858  39.940681
H  12.808459  44.810336  39.870665
C  10.946929  45.128942  39.072223
C  9.830524  45.941514  39.186562
H  9.127794  45.825249  38.560270
C  11.009237  44.114671  38.031616
N  7.380602  53.959327  33.120208
N  62.751814  57.512807  39.392114
N  1.128609  56.316109  38.584680
N  4.555546  53.994014  36.170086
N  3.945314  53.300276  38.321316
N  5.623132  52.127345  37.111129
N  6.471034  49.774417  40.356923
N  9.689207  46.870352  40.116042
N  7.896409  48.241770  38.089428
N  10.057274  44.121094  37.096355
S  61.654680  59.261284  37.535722
S  7.758946  47.945646  35.313191
C  6.530130  21.833476  2.041388
H  6.057360  22.636414  2.241802
C  6.302096  20.730562  2.837260
C  6.948300  19.551207  2.537925
H  6.847451  18.782314  3.089703
C  7.748026  19.516520  1.414455
H  8.138575  18.698809  1.130536
C  7.979272  20.665042  0.705943
H  8.588220  20.632282  64.209306
C  62.243715  26.116666  6.520495
C  1.074652  25.094687  5.470253
H  0.411104  25.771082  5.524210
C  1.900714  25.101111  4.387250
H  1.843544  25.790353  3.738477
C  2.819274  24.084913  4.254926
H  3.410878  24.056007  3.513654
C  2.861027  23.095052  5.237722
C  2.000920  23.198470  6.295672
H  2.023402  22.514367  6.950227
C  3.843180  21.972866  5.141369
C  4.862590  20.219893  6.104252
C  5.436208  20.859674  4.016615
C  6.204459  18.476555  7.247635
H  6.770369  18.461139  6.487735
C  5.114391  19.384196  7.257270
C  4.360272  19.447789  8.405792
H  3.642124  20.060590  8.472596
C  4.656395  18.615945  9.457961
H  4.162428  18.653844  10.264753
C  5.692506  17.720509  9.309579
H  5.858232  17.112204  10.020660
C  7.830246  15.988092  4.851027
C  10.758078  14.932710  8.851583
H  10.695127  15.621952  9.500357
C  11.869986  14.199789  8.816896
H  12.557943  14.343675  9.455392
C  12.015157  13.207358  7.823181
H  12.808459  12.692836  7.753165
C  10.946929  13.011442  6.954723
C  9.830524  13.824014  7.069062
H  9.127794  13.707749  6.442770
C  11.009237  11.997171  5.914116
N  7.380602  21.841827  1.002708
N  62.751814  25.395307  7.274614
N  1.128609  24.198609  6.467180
N  4.555546  21.876514  4.052586
N  3.945314  21.182776  6.203816
N  5.623132  20.009845  4.993629
N  6.471034  17.656917  8.239423
N  9.689207  14.752852  7.998542
N  7.896409  16.124270  5.971928
N  10.057274  12.003594  4.978855
S  61.654680  27.143784  5.418222
S  7.758946  15.828146  3.195691
Co  40.459057  24.400307  0.000000
Co  40.459057  56.517807  32.117500
Co  8.341557  56.517807  0.000000
Co  39.834693  23.775943  32.117500
Co  39.834693  55.893443  0.000000
Co  7.717193  23.775943  0.000000
Co  7.717193  56.517807  16.058750
Co  7.717193  24.400307  48.176250
Co  8.341557  55.893443  48.176250
Co  8.341557  23.775943  16.058750
Co  0.000000  40.459057  24.400307
Co  0.000000  8.341557  56.517807
Co  32.117500  40.459057  56.517807
Co  32.117500  39.834693  23.775943
Co  0.000000  39.834693  55.893443
Co  0.000000  7.717193  23.775943
Co  16.058750  7.717193  56.517807
Co  48.176250  7.717193  24.400307
Co  48.176250  8.341557  55.893443
Co  16.058750  8.341557  23.775943
Co  24.400307  0.000000  40.459057
Co  24.400307  32.117500  8.341557
Co  56.517807  0.000000  8.341557
Co  23.775943  32.117500  39.834693
Co  23.775943  0.000000  7.717193
Co  56.517807  16.058750  7.717193
Co  56.517807  48.176250  39.834693
Co  24.400307  48.176250  7.717193
Co  55.893443  48.176250  8.341557
Co  55.893443  16.058750  40.459057
Co  8.341557  24.400307  32.117500
Co  7.717193  55.893443  32.117500
Co  40.459057  23.775943  48.176250
Co  40.459057  55.893443  16.058750
Co  39.834693  24.400307  16.058750
Co  39.834693  56.517807  48.176250
Co  24.400307  16.058750  39.834693
Co  23.775943  48.176250  40.459057
Co  23.775943  16.058750  8.341557
Co  55.893443  32.117500  7.717193
Co  55.893443  0.000000  39.834693
Co  56.517807  32.117500  40.459057
Co  48.176250  40.459057  23.775943
Co  16.058750  40.459057  55.893443
Co  16.058750  39.834693  24.400307
Co  48.176250  39.834693  56.517807
Co  32.117500  8.341557  24.400307
Co  32.117500  7.717193  55.893443
Co  23.775943  39.834693  0.000000
Co  23.775943  7.717193  32.117500
Co  55.893443  7.717193  0.000000
Co  24.400307  40.459057  32.117500
Co  24.400307  8.341557  0.000000
Co  56.517807  7.717193  48.176250
Co  56.517807  39.834693  16.058750
Co  55.893443  8.341557  16.058750
Co  55.893443  40.459057  48.176250
Co  23.775943  8.341557  48.176250
Co  0.000000  23.775943  39.834693
Co  0.000000  55.893443  7.717193
Co  32.117500  23.775943  7.717193
Co  32.117500  24.400307  40.459057
Co  0.000000  24.400307  8.341557
Co  48.176250  56.517807  7.717193
Co  16.058750  56.517807  39.834693
Co  16.058750  55.893443  8.341557
Co  48.176250  55.893443  40.459057
Co  48.176250  23.775943  8.341557
Co  39.834693  0.000000  23.775943
Co  39.834693  32.117500  55.893443
Co  7.717193  0.000000  55.893443
Co  40.459057  32.117500  24.400307
Co  40.459057  0.000000  56.517807
Co  8.341557  0.000000  24.400307
Co  7.717193  48.176250  56.517807
Co  7.717193  16.058750  24.400307
Co  8.341557  16.058750  55.893443
Co  8.341557  48.176250  23.775943
Co  55.893443  39.834693  32.117500
Co  56.517807  8.341557  32.117500
Co  56.517807  40.459057  0.000000
Co  23.775943  40.459057  16.058750
Co  24.400307  39.834693  48.176250
Co  24.400307  7.717193  16.058750
Co  39.834693  48.176250  24.400307
Co  39.834693  16.058750  56.517807
Co  40.459057  16.058750  23.775943
Co  40.459057  48.176250  55.893443
Co  8.341557  32.117500  56.517807
Co  7.717193  32.117500  23.775943
Co  16.058750  23.775943  40.459057
Co  48.176250  24.400307  39.834693
Co  16.058750  24.400307  7.717193
Co  32.117500  55.893443  39.834693
Co  32.117500  56.517807  8.341557
Co  0.000000  56.517807  40.459057
Co  40.146875  16.174373  8.029375
Co  40.146875  48.291873  40.146875
Co  40.146875  32.001877  40.146875
Co  40.146875  64.119377  8.029375
Co  8.029375  48.291873  8.029375
Co  8.029375  16.174373  40.146875
Co  8.029375  64.119377  40.146875
Co  8.029375  32.001877  8.029375
Co  8.029375  40.146875  16.174373
Co  40.146875  40.146875  48.291873
Co  40.146875  40.146875  32.001877
Co  8.029375  40.146875  64.119377
Co  8.029375  8.029375  48.291873
Co  40.146875  8.029375  16.174373
Co  40.146875  8.029375  64.119377
Co  8.029375  8.029375  32.001877
Co  16.174373  8.029375  40.146875
Co  16.174373  40.146875  8.029375
Co  48.291873  40.146875  40.146875
Co  32.001877  40.146875  40.146875
Co  32.001877  8.029375  8.029375
Co  48.291873  8.029375  8.029375
Co  64.119377  40.146875  8.029375
Co  64.119377  8.029375  40.146875
Co  0.115623  56.205625  56.205625
Co  0.115623  24.088125  24.088125
Co  15.943127  56.205625  24.088125
Co  15.943127  24.088125  56.205625
Co  32.233123  24.088125  56.205625
Co  32.233123  56.205625  24.088125
Co  48.060627  24.088125  24.088125
Co  48.060627  56.205625  56.205625
Co  24.088125  24.088125  48.060627
Co  24.088125  56.205625  15.943127
Co  24.088125  56.205625  32.233123
Co  24.088125  24.088125  0.115623
Co  56.205625  24.088125  15.943127
Co  56.205625  56.205625  48.060627
Co  56.205625  56.205625  0.115623
Co  56.205625  24.088125  32.233123
Co  56.205625  32.233123  24.088125
Co  24.088125  32.233123  56.205625
Co  24.088125  48.060627  24.088125
Co  56.205625  48.060627  56.205625
Co  56.205625  0.115623  56.205625
Co  24.088125  0.115623  24.088125
Co  24.088125  15.943127  56.205625
Co  56.205625  15.943127  24.088125
Co  24.088125  48.060627  56.205625
Co  24.088125  15.943127  24.088125
Co  24.088125  32.233123  24.088125
Co  24.088125  0.115623  56.205625
Co  56.205625  15.943127  56.205625
Co  56.205625  48.060627  24.088125
Co  56.205625  0.115623  24.088125
Co  56.205625  32.233123  56.205625
Co  56.205625  24.088125  48.060627
Co  24.088125  24.088125  15.943127
Co  24.088125  24.088125  32.233123
Co  56.205625  24.088125  0.115623
Co  56.205625  56.205625  15.943127
Co  24.088125  56.205625  48.060627
Co  24.088125  56.205625  0.115623
Co  56.205625  56.205625  32.233123
Co  48.060627  56.205625  24.088125
Co  48.060627  24.088125  56.205625
Co  32.233123  24.088125  24.088125
Co  32.233123  56.205625  56.205625
Co  15.943127  56.205625  56.205625
Co  15.943127  24.088125  24.088125
Co  0.115623  24.088125  56.205625
Co  0.115623  56.205625  24.088125
Co  64.119377  8.029375  8.029375
Co  64.119377  40.146875  40.146875
Co  32.001877  40.146875  8.029375
Co  48.291873  8.029375  40.146875
Co  48.291873  40.146875  8.029375
Co  32.001877  8.029375  40.146875
Co  16.174373  40.146875  40.146875
Co  16.174373  8.029375  8.029375
Co  40.146875  40.146875  16.174373
Co  40.146875  8.029375  48.291873
Co  40.146875  8.029375  32.001877
Co  40.146875  40.146875  64.119377
Co  8.029375  40.146875  48.291873
Co  8.029375  8.029375  16.174373
Co  8.029375  8.029375  64.119377
Co  8.029375  40.146875  32.001877
Co  8.029375  32.001877  40.146875
Co  40.146875  32.001877  8.029375
Co  40.146875  16.174373  40.146875
Co  8.029375  16.174373  8.029375
Co  8.029375  64.119377  8.029375
Co  40.146875  64.119377  40.146875
Co  40.146875  48.291873  8.029375
Co  8.029375  48.291873  40.146875
