5436
core_PURSEC
C  7.838201  6.985220  22.139886
C  6.809971  7.993676  22.345151
C  7.050168  9.071080  23.205109
H  7.810761  9.063717  23.740115
C  6.200492  10.123716  23.273930
H  6.374988  10.834287  23.847834
C  5.109652  10.131414  22.510919
H  4.533410  10.857717  22.549219
C  4.812449  9.061039  21.643181
C  5.670821  7.994680  21.562990
H  5.488016  7.283105  20.993275
C  3.255901  8.186464  20.039362
H  3.089908  7.353392  20.508539
H  3.942096  8.032836  19.371503
C  1.981483  8.688181  19.382873
C  0.812961  8.758804  20.126136
C  -0.281551  9.380009  19.574374
C  -0.269763  9.803407  18.248231
C  0.898952  9.682914  17.516937
C  2.086026  9.171156  18.124354
C  3.372811  9.182870  17.329626
H  4.108282  9.391724  17.911309
H  3.314066  9.843571  16.636632
H  3.515036  8.317332  16.935852
C  0.700495  8.153663  21.525887
H  1.074414  7.269717  21.525887
H  -0.222226  8.109817  21.783216
H  1.178764  8.702239  22.148264
C  -1.493745  10.408547  17.641413
H  -2.266705  10.131414  18.138716
H  -1.578771  10.118026  16.732382
H  -1.422246  11.366463  17.665949
C  -1.521765  9.619656  20.385859
H  -1.298573  9.659485  21.328402
H  -1.924670  10.462769  20.131522
C  -3.647212  8.660736  20.774246
C  -4.001227  9.743830  21.570171
H  -3.395227  10.432646  21.717388
C  -5.263858  9.798052  22.148863
H  -5.499610  10.523015  22.680876
C  32.475141  8.769179  21.931031
H  31.631456  8.805996  22.315828
C  32.829350  7.685750  21.135105
C  34.091981  7.631529  20.556414
H  34.327154  6.908239  20.023802
C  31.866049  6.598975  20.905903
C  0.935668  10.178942  16.081878
H  1.630946  9.713037  15.595346
H  0.085026  9.994187  15.649206
C  1.057603  12.201543  14.877218
C  1.289297  13.569468  14.928684
H  1.516934  13.967094  15.738972
C  1.185527  14.339616  13.796436
H  1.315964  15.259041  13.841917
C  0.881561  13.734141  12.570831
H  0.846391  14.244896  11.795252
C  0.633247  12.380274  12.520562
C  0.760206  11.623514  13.682732
H  0.637692  10.703754  13.638448
C  0.315368  11.707189  11.223742
C  4.092050  4.349111  20.551626
C  3.152711  4.473955  21.700033
C  1.836553  4.037169  21.603684
H  1.542055  3.614776  20.825712
C  0.960983  4.228953  22.665915
H  0.081161  3.936090  22.603079
C  1.401376  4.857858  23.825093
H  0.815473  4.987052  24.536040
C  2.717534  5.294643  23.921442
C  3.593105  5.102859  22.858613
H  4.471574  5.395388  22.920252
C  4.251280  6.582909  25.096778
H  4.345968  7.078937  24.266742
H  4.995254  5.967728  25.170386
C  4.251473  7.547184  26.284083
C  3.554843  8.730354  26.206884
C  3.734749  9.687935  27.242784
C  4.624040  9.444272  28.249360
C  5.274099  8.210562  28.368450
C  5.036994  7.213487  27.433088
C  5.642415  5.838198  27.563548
H  5.057091  5.191220  27.163192
H  5.762417  5.629679  28.491728
H  6.490932  5.820459  27.115316
C  2.695118  9.058027  25.078227
H  3.155609  9.662832  24.488165
H  1.889887  9.472052  25.397794
H  2.473472  8.253739  24.601868
C  4.911774  10.566526  29.257133
H  5.115063  11.376504  28.784964
H  5.660000  10.318847  29.808296
H  4.139201  10.703754  29.808296
C  3.011645  10.989254  27.160798
H  2.247381  10.921310  26.570736
H  2.705360  11.272746  28.036914
C  3.721609  13.227069  26.764631
C  4.784236  14.096958  26.550389
H  5.636811  13.759579  26.385220
C  4.576116  15.470907  26.585099
H  5.287046  16.052284  26.439079
C  3.304984  15.974968  26.833451
H  3.165271  16.895732  26.857987
C  2.241777  15.105413  27.047094
C  2.449897  13.731464  27.012385
H  1.737228  13.150422  27.157207
C  0.926006  15.640601  27.293053
C  6.344842  8.083711  29.400759
H  6.811710  7.246287  29.269700
H  6.983694  8.802649  29.281669
C  6.700983  8.608188  31.672437
C  6.100780  8.968996  32.872908
H  5.182697  8.876284  32.980028
C  6.874127  9.467701  33.914193
H  6.471608  9.709690  34.715504
C  8.248449  9.604929  33.755607
H  8.767299  9.937287  34.452191
C  8.848653  9.244121  32.555136
C  8.075306  8.745415  31.513850
H  8.477439  8.504765  30.711941
C  10.314958  9.368630  32.393557
Mn  10.078239  5.505840  21.602487
Mn  7.160701  4.685152  19.657557
Mn  4.471574  4.683813  17.503173
O  8.931746  7.075924  22.770642
O  7.706604  6.076506  21.332591
O  3.681608  9.204961  20.967542
O  1.183402  11.543185  16.053751
O  0.085605  10.477161  11.282988
O  0.302614  12.392658  10.195622
O  -2.444293  8.538570  20.142892
O  32.231659  5.534624  20.406804
O  30.699266  6.822555  21.334386
O  5.268882  4.387937  20.795790
O  3.577066  4.202177  19.443914
O  3.035221  5.870330  25.095581
O  4.011083  11.930435  26.624596
O  0.026087  14.834305  27.671866
O  0.618561  16.827118  27.083001
O  5.848022  8.126218  30.717925
O  10.822213  9.180193  31.276270
O  11.015646  9.660489  33.412701
O  12.052379  5.686578  22.220077
O  12.274605  5.509187  22.046530
H  12.576059  6.399493  22.196140
H  12.479439  4.973664  22.812533
H  12.605045  4.615534  21.992670
H  12.699733  6.044709  21.376277
H  12.266875  6.600314  22.387640
H  12.143202  5.187873  23.033956
H  12.433062  4.813008  22.267952
H  12.560600  6.225448  21.621637
C  27.162394  18.141825  42.087687
C  26.134164  19.150281  42.292952
C  26.374361  20.227685  43.152910
H  -11.513046  20.220322  43.687915
C  25.524685  21.280321  43.221731
H  25.699181  21.990893  43.795635
C  24.433845  21.288019  42.458720
H  23.857604  22.014322  42.497020
C  24.136642  20.217644  41.590982
C  24.995014  19.151285  41.510791
H  24.812209  18.439710  40.941076
C  22.580094  19.343069  39.987162
H  22.414101  18.509997  40.456339
H  23.266289  19.189441  39.319303
C  21.305676  19.844787  39.330674
C  20.137154  19.915409  40.073936
C  19.042643  20.536615  39.522174
C  19.054430  20.960012  38.196031
C  20.223146  20.839519  37.464738
C  21.410219  20.327761  38.072154
C  22.697004  20.339475  37.277426
H  23.432476  20.548329  37.859110
H  22.638259  21.000176  36.584433
H  22.839229  19.473937  36.883653
C  20.024688  19.310268  41.473687
H  20.398608  18.426322  41.473687
H  19.101967  19.266422  41.731017
H  20.502957  19.858844  42.096065
C  17.830448  21.565152  37.589213
H  17.057488  21.288019  38.086517
H  17.745422  21.274631  36.680183
H  17.901947  22.523068  37.613749
C  17.802428  20.776261  40.333659
H  18.025620  20.816090  41.276202
H  17.399523  21.619374  40.079322
C  15.676981  19.817341  40.722047
C  15.322966  20.900435  41.517972
H  15.928966  21.589251  41.665188
C  14.060336  20.954657  42.096663
H  13.824583  21.679620  42.628677
C  13.151335  19.925784  41.878831
H  12.307649  19.962601  42.263628
C  13.505544  18.842356  41.082906
C  14.768174  18.788134  40.504215
H  15.003347  18.064844  39.971603
C  12.542242  17.755580  40.853703
C  20.259861  21.335547  36.029679
H  20.955139  20.869643  35.543147
H  19.409219  21.150792  35.597007
C  20.381796  23.358148  34.825019
C  20.613491  24.726073  34.876485
H  20.841127  25.123699  35.686773
C  20.509721  25.496221  33.744236
H  20.640158  26.415646  33.789718
C  20.205754  24.890746  32.518631
H  20.170584  25.401501  31.743053
C  19.957441  23.536879  32.468362
C  20.084399  22.780119  33.630533
H  19.961885  21.860359  33.586248
C  19.639561  22.863794  31.171543
C  23.416243  15.505716  40.499427
C  22.476904  15.630560  41.647833
C  21.160746  15.193775  41.551485
H  20.866248  14.771381  40.773513
C  20.285176  15.385558  42.613716
H  19.405354  15.092695  42.550879
C  20.725570  16.014463  43.772894
H  20.139666  16.143657  44.483841
C  22.041727  16.451248  43.869243
C  22.917298  16.259464  42.806413
H  23.795767  16.551993  42.868053
C  23.575473  17.739514  45.044579
H  23.670161  18.235542  44.214543
H  24.319447  17.124333  45.118187
C  23.575666  18.703789  46.231884
C  22.879036  19.886959  46.154685
C  23.058943  20.844540  47.190585
C  23.948233  20.600877  48.197161
C  24.598293  19.367167  48.316250
C  24.361187  18.370092  47.380889
C  24.966608  16.994803  47.511348
H  24.381284  16.347825  47.110992
H  25.086610  16.786284  48.439529
H  25.815125  16.977064  47.063117
C  22.019312  20.214632  45.026027
H  22.479802  20.819437  44.435965
H  21.214080  20.628657  45.345594
H  21.797665  19.410344  44.549669
C  24.235968  21.723131  49.204934
H  24.439256  22.533109  48.732765
H  24.984193  21.475452  49.756097
H  23.463394  21.860359  49.756097
C  22.335839  22.145859  47.108598
H  21.571574  22.077915  46.518537
H  22.029553  22.429351  47.984715
C  23.045802  24.383674  46.712431
C  -14.539571  25.253563  46.498190
H  -13.686996  24.916184  46.333020
C  -14.747690  26.627512  46.532899
H  -14.036760  27.208889  46.386880
C  22.629177  27.131573  46.781252
H  -16.158536  28.052337  46.805788
C  21.565970  26.262018  46.994895
C  21.774090  24.888069  46.960185
H  21.061421  24.307027  47.105008
C  20.250199  26.797206  47.240854
C  25.669035  19.240316  49.348559
H  26.135903  18.402892  49.217501
H  26.307887  19.959254  49.229470
C  26.025177  19.764793  51.620238
C  25.424973  20.125601  52.820708
H  24.506890  20.032889  52.927829
C  26.198320  20.624306  53.861994
H  25.795801  20.866295  54.663305
C  -11.075357  20.761534  53.703407
H  -10.556508  21.093893  54.399991
C  -10.475154  20.400726  52.502937
C  -11.248500  19.902020  51.461651
H  -10.846368  19.661370  50.659741
C  -9.008849  20.525235  52.341358
Mn  -9.246148  16.662779  41.550288
Mn  26.484895  15.841757  39.605956
Mn  23.795574  15.840752  37.451572
O  -10.392061  18.232529  42.718443
O  27.030798  17.233111  41.280391
O  23.005802  20.361566  40.915343
O  20.507595  22.699790  36.001552
O  19.409799  21.633766  31.230788
O  19.626807  23.549263  30.143423
O  16.879900  19.695175  40.090692
O  12.907852  16.691229  40.354605
O  11.375459  17.979160  41.282187
O  24.593075  15.544542  40.743591
O  22.901259  15.358782  39.391715
O  22.359414  17.026935  45.043382
O  23.335276  23.087040  46.572396
O  19.350281  25.990910  47.619666
O  19.942754  27.983723  47.030801
O  25.172215  19.282823  50.665726
O  -8.501594  20.336798  51.224070
O  -8.308161  20.817094  53.360501
O  -7.271428  16.843183  42.167878
O  -7.049202  16.665792  41.994330
H  -6.747748  17.556098  42.143940
H  -6.844368  16.130269  42.760333
H  -6.718762  15.772139  41.940471
H  -6.624074  17.201314  41.324077
H  -7.056932  17.756919  42.335441
H  -7.180605  16.344478  42.981756
H  -6.890745  15.969613  42.215753
H  -6.763207  17.382053  41.569438
C  7.838008  29.298765  2.192086
C  6.809778  30.307221  2.397351
C  7.049975  31.384625  3.257309
H  7.810568  31.377261  3.792314
C  6.200299  32.437261  3.326130
H  6.374794  33.147832  3.900033
C  5.109459  32.444959  2.563119
H  4.533217  33.171261  2.601419
C  4.812256  31.374584  1.695381
C  5.670628  30.308225  1.615190
H  5.487823  29.596649  1.045475
C  3.255708  30.500009  0.091561
H  3.089714  29.666937  0.560738
H  3.941903  30.346381  59.267702
C  1.981290  31.001726  59.279073
C  0.812767  31.072348  0.178335
C  -0.281744  31.693554  59.470573
C  -0.269956  32.116952  58.144430
C  0.898759  31.996459  57.413137
C  2.085833  31.484701  58.020553
C  3.372618  31.496415  57.225825
H  4.108089  31.705269  57.807509
H  3.313873  32.157116  56.532831
H  3.514842  30.630877  56.832051
C  0.700302  30.467208  1.578086
H  1.074221  29.583261  1.578086
H  -0.222419  30.423362  1.835415
H  1.178571  31.015784  2.200464
C  -1.493938  32.722092  57.537612
H  -2.266898  32.444959  58.034916
H  -1.578964  32.431571  56.628582
H  17.901560  0.209858  57.562148
C  -1.521958  31.933201  0.438058
H  -1.298766  31.973030  1.380601
H  -1.924864  32.776314  0.183721
C  -3.647405  30.974281  0.826446
C  -4.001421  32.057375  1.622371
H  -3.395420  32.746190  1.769587
C  -5.264051  32.111596  2.201062
H  -5.499804  32.836560  2.733075
C  -6.173052  31.082724  1.983230
H  -7.016738  31.119541  2.368027
C  -5.818843  29.999295  1.187305
C  -4.556213  29.945074  0.608613
H  -4.321040  29.221784  0.076002
C  -6.782144  28.912520  0.958102
C  0.935475  32.492487  55.978078
H  1.630752  32.026582  55.491546
H  0.084832  32.307732  55.545405
C  20.381409  1.044938  54.773418
C  20.613104  2.412863  54.824884
H  20.840741  2.810488  55.635171
C  20.509334  3.183011  53.692635
H  20.639771  4.102436  53.738117
C  20.205368  2.577536  52.467030
H  20.170198  3.088291  51.691452
C  19.957054  1.223669  52.416761
C  20.084013  0.466909  53.578932
H  0.637499  33.017299  53.534647
C  19.639174  0.550584  51.119942
C  4.091857  26.662656  0.603826
C  3.152517  26.787500  1.752232
C  1.836360  26.350714  1.655883
H  1.541862  25.928321  0.877911
C  0.960789  26.542498  2.718114
H  0.080968  26.249634  2.655278
C  1.401183  27.171402  3.877293
H  0.815280  27.300597  4.588239
C  2.717341  27.608188  3.973642
C  3.592911  27.416404  2.910812
H  4.471380  27.708933  2.972451
C  4.251087  28.896454  5.148978
H  4.345774  29.392481  4.318941
H  4.995061  28.281272  5.222586
C  4.251280  29.860729  6.336283
C  3.554650  31.043899  6.259084
C  3.734556  32.001480  7.294984
C  4.623847  31.757817  8.301560
C  5.273906  30.524107  8.420649
C  5.036801  29.527031  7.485288
C  5.642222  28.151743  7.615747
H  5.056898  27.504765  7.215391
H  5.762224  27.943224  8.543928
H  6.490738  28.134004  7.167516
C  2.694925  31.371571  5.130426
H  3.155416  31.976377  4.540364
H  1.889694  31.785597  5.449993
H  2.473279  30.567284  4.654068
C  4.911581  32.880071  9.309333
H  24.438870  0.219899  8.837163
H  5.659806  32.632392  9.860496
H  4.139008  33.017299  9.860496
C  3.011452  33.302799  7.212997
H  2.247188  33.234855  6.622935
H  22.029167  0.116141  8.089113
C  23.045416  2.070463  6.816830
C  24.108043  2.940353  6.602589
H  24.960618  2.602974  6.437419
C  23.899923  4.314302  6.637298
H  24.610853  4.895679  6.491279
C  22.628790  4.818363  6.885651
H  22.489078  5.739127  6.910187
C  21.565584  3.948808  7.099294
C  21.773703  2.574859  7.064584
H  21.061034  1.993817  7.209407
C  20.249813  4.483996  7.345253
C  6.344649  30.397255  9.452958
H  6.811517  29.559832  9.321900
H  6.983500  31.116194  9.333869
C  6.700790  30.921733  11.724636
C  6.100587  31.282541  12.925107
H  5.182504  31.189828  13.032228
C  6.873933  31.781246  13.966393
H  6.471414  32.023235  14.767704
C  8.248256  31.918474  13.807806
H  8.767106  32.250832  14.504390
C  8.848460  31.557665  12.607335
C  8.075113  31.058960  11.566050
H  8.477246  30.818310  10.764140
C  10.314765  31.682174  12.445757
Mn  10.078046  27.819384  1.654687
Mn  7.160895  26.998696  59.553757
Mn  4.471380  26.997358  57.399373
O  8.931553  29.389469  2.822841
O  7.706411  28.390050  1.384790
O  3.681415  31.518505  1.019742
O  20.507209  0.386580  55.949951
O  0.085412  32.790706  51.179187
O  19.626421  1.236053  50.091822
O  -2.444486  30.852115  0.195091
O  -6.416534  27.848169  0.459003
O  -7.948927  29.136100  1.386585
O  5.268689  26.701481  0.847989
O  3.576872  26.515722  59.340114
O  3.035027  28.183874  5.147781
O  23.334889  0.773830  6.676795
O  19.349894  3.677700  7.724065
O  19.942368  5.670513  7.135200
O  5.847829  30.439762  10.770125
O  10.822020  31.493737  11.328469
O  11.015453  31.974034  13.464900
O  12.052186  28.000123  2.272277
O  12.274412  27.822731  2.098729
H  12.575866  28.713037  2.248339
H  12.479246  27.287209  2.864732
H  12.604852  26.929078  2.044869
H  12.699540  28.358254  1.428476
H  12.266682  28.913858  2.439840
H  12.143008  27.501418  3.086155
H  12.432868  27.126552  2.320152
H  12.560407  28.538993  1.673837
C  28.679521  3.295471  22.139886
C  28.320288  1.900770  22.345151
C  27.267130  1.570085  23.205109
H  26.893211  2.232459  23.740115
C  26.780359  0.307925  23.273930
H  26.077738  0.103757  23.847834
C  7.995112  32.829531  22.510919
H  7.654236  31.967340  22.549219
C  9.070686  33.107333  21.643181
C  28.888994  0.913735  21.562990
H  29.596638  1.111209  20.993275
C  10.606364  32.196611  20.039362
H  11.410822  32.469392  20.508539
H  10.396312  32.867687  19.371503
C  10.809073  30.842074  19.382873
C  11.332173  29.794793  20.126136
C  11.341449  28.536315  19.574374
C  10.968882  28.334825  18.248231
C  10.488874  29.407208  17.516937
C  10.338533  30.691123  18.124354
C  9.684996  31.799655  17.329626
H  9.136387  32.332165  17.911309
H  9.142184  31.418430  16.636632
H  10.363461  32.355594  16.935852
C  11.912473  29.999965  21.525887
H  12.491034  30.765762  21.525887
H  12.411805  29.222788  21.783216
H  11.198258  30.139870  22.148264
C  11.056806  26.972255  17.641413
H  11.683290  26.441418  18.138716
H  11.350918  27.043881  16.732382
H  10.191478  26.555217  17.665949
C  11.754016  27.342435  20.385859
H  11.607927  27.515810  21.328402
H  11.225312  26.571952  20.131522
C  13.647189  25.981204  20.774246
C  12.886209  25.133070  21.570171
H  11.986677  25.313474  21.717388
C  13.470567  24.012490  22.148863
H  12.960607  23.445840  22.680876
C  14.816097  23.739708  21.931031
H  15.206056  22.990646  22.315828
C  15.577270  24.588176  21.135105
C  14.992912  25.708757  20.556414
H  15.501713  26.274068  20.023802
C  17.000096  24.297321  20.905903
C  10.040944  29.190991  16.081878
H  10.096790  30.026071  15.595346
H  10.626268  28.546691  15.649206
C  8.228352  28.285289  14.877218
C  6.927847  27.801980  14.928684
H  6.469675  27.800306  15.738972
C  6.312764  27.327039  13.796436
H  5.451300  26.980288  13.841917
C  6.989104  27.366533  12.570831
H  6.564363  27.080698  11.795252
C  8.285745  27.828421  12.520562
C  8.877639  28.316751  13.682732
H  9.735431  28.670530  13.638448
C  9.027593  27.889672  11.223742
C  32.835534  1.369264  20.551626
C  33.197086  0.493350  21.700033
C  14.909432  33.042067  21.603684
H  15.422484  32.998221  20.825712
C  15.181128  32.187908  22.665915
H  15.874666  31.572392  22.603079
C  14.416284  32.254849  23.825093
H  14.597350  31.682844  24.536040
C  13.379938  33.176282  23.921442
C  32.432242  0.560290  22.858613
H  31.739670  1.174802  22.920252
C  30.821394  0.390262  25.096778
H  30.344477  0.224250  24.266742
H  30.982169  1.342153  25.170386
C  10.662210  33.378442  26.284083
C  9.985870  32.183557  26.206884
C  9.066628  31.860570  27.242784
C  8.833000  32.752550  28.249360
C  28.900395  0.462223  28.368450
C  29.882440  0.755421  27.433088
C  30.770765  1.967375  27.563548
H  31.623726  1.783959  27.163192
H  30.891346  2.175560  28.491728
H  30.361869  2.711082  27.115316
C  10.131960  31.275177  25.078227
H  9.377937  31.371571  24.488165
H  10.176018  30.370814  25.397794
H  10.939316  31.485370  24.601868
C  7.717233  32.440608  29.257133
H  6.914127  32.211672  28.784964
H  7.557616  33.212430  29.808296
H  7.984677  31.702926  29.808296
C  8.301204  30.583684  27.160798
H  8.742178  29.955784  26.570736
H  8.208835  30.176687  28.036914
C  6.008218  30.079624  26.764631
C  4.723559  30.564941  26.550389
H  4.589450  31.471982  26.385220
C  3.637743  29.697729  26.585099
H  2.778791  30.022724  26.439079
C  3.836780  28.344866  26.833451
H  3.109232  27.763489  26.857987
C  5.121440  27.858879  27.047094
C  6.207255  28.726091  27.012385
H  7.066787  28.399422  27.157207
C  5.315839  26.451794  27.293053
C  28.474880  1.452939  29.400759
H  28.966676  2.275970  29.269700
H  27.532835  1.646731  29.281669
C  27.842599  1.499128  31.672437
C  27.830232  0.798932  32.872908
H  28.369564  0.050205  32.980028
C  27.011667  1.219318  33.914193
H  27.003358  0.749731  34.715504
C  26.205663  2.340902  33.755607
H  25.658407  2.624060  34.452191
C  26.218030  3.041098  32.555136
C  27.036595  2.620713  31.513850
H  27.043938  3.089295  30.711941
C  25.377050  4.248701  32.393557
Mn  28.840877  5.974756  21.602487
Mn  31.010189  3.858774  19.657557
Mn  32.355912  1.530590  17.503173
O  28.054197  4.197157  22.770642
O  29.532289  3.635862  21.332591
O  9.511466  32.056036  20.967542
O  8.735607  28.723413  16.053751
O  10.207710  28.305706  11.282988
O  8.440337  27.535892  10.195622
O  13.151528  27.084045  20.142892
O  17.739046  25.146124  20.406804
O  17.389861  23.175066  21.334386
O  32.213494  2.369017  20.795790
O  33.220275  0.996741  19.443914
O  12.722535  33.163563  25.095581
O  6.986399  30.978632  26.624596
O  6.464071  26.075590  27.671866
O  4.442008  25.592281  27.083001
O  28.686478  1.001427  30.717925
O  25.286613  4.782215  31.276270
O  24.773948  4.709585  33.412701
O  27.697089  7.594377  22.220077
O  27.739602  7.875526  22.046530
H  26.817847  7.691440  22.196140
H  28.100961  8.320679  22.812533
H  28.348308  8.608523  21.992670
H  27.063262  7.975937  21.376277
H  26.798523  7.323269  22.387640
H  28.083569  7.922384  23.033956
H  28.263282  8.360843  22.267952
H  26.976304  7.765075  21.621637
C  9.355715  14.452076  42.087687
C  8.996481  13.057375  42.292952
C  7.943323  12.726690  43.152910
H  7.569404  13.389064  43.687915
C  7.456552  11.464530  43.221731
H  6.753931  11.260362  43.795635
C  7.995305  10.515986  42.458720
H  7.654430  9.653795  42.497020
C  9.070879  10.793789  41.590982
C  9.565187  12.070340  41.510791
H  10.272832  12.267814  40.941076
C  10.606557  9.883066  39.987162
H  11.411015  10.155848  40.456339
H  10.396505  10.554142  39.319303
C  10.809266  8.528529  39.330674
C  11.332367  7.481248  40.073936
C  11.341642  6.222770  39.522174
C  10.969075  6.021280  38.196031
C  10.489067  7.093664  37.464738
C  10.338726  8.377578  38.072154
C  9.685189  9.486110  37.277426
H  9.136580  10.018620  37.859110
H  9.142378  9.104885  36.584433
H  10.363654  10.042049  36.883653
C  11.912666  7.686420  41.473687
H  12.491227  8.452217  41.473687
H  12.411998  6.909243  41.731017
H  11.198451  7.826325  42.096065
C  11.057000  4.658710  37.589213
H  11.683484  4.127874  38.086517
H  11.351111  4.730336  36.680183
H  10.191671  4.241672  37.613749
C  11.754209  5.028890  40.333659
H  11.608120  5.202265  41.276202
H  11.225505  4.258407  40.079322
C  13.647382  3.667659  40.722047
C  12.886403  2.819525  41.517972
H  11.986870  2.999930  41.665188
C  13.470760  1.698945  42.096663
H  12.960800  1.132295  42.628677
C  14.816291  1.426163  41.878831
H  15.206249  0.677101  42.263628
C  15.577463  2.274631  41.082906
C  14.993105  3.395212  40.504215
H  15.501906  3.960523  39.971603
C  17.000289  1.983776  40.853703
C  10.041137  6.877446  36.029679
H  10.096983  7.712527  35.543147
H  10.626461  6.233146  35.597007
C  8.228546  5.971744  34.825019
C  6.928040  5.488435  34.876485
H  6.469868  5.486762  35.686773
C  6.312958  5.013494  33.744236
H  5.451494  4.666743  33.789718
C  6.989298  5.052989  32.518631
H  6.564556  4.767153  31.743053
C  8.285938  5.514877  32.468362
C  8.877832  6.003206  33.630533
H  9.735624  6.356986  33.586248
C  9.027786  5.576127  31.171543
C  13.511727  12.525869  40.499427
C  13.873279  11.649955  41.647833
C  14.909625  10.728522  41.551485
H  15.422678  10.684676  40.773513
C  15.181321  9.874364  42.613716
H  15.874859  9.258848  42.550879
C  14.416477  9.941304  43.772894
H  14.597543  9.369299  44.483841
C  13.380131  10.862737  43.869243
C  13.108435  11.716895  42.806413
H  12.415863  12.331407  42.868053
C  11.497587  11.546867  45.044579
H  11.020670  11.380855  44.214543
H  11.658362  12.498758  45.118187
C  10.662403  11.064897  46.231884
C  9.986063  9.870012  46.154685
C  9.066821  9.547026  47.190585
C  8.833194  10.439005  48.197161
C  9.576588  11.618828  48.316250
C  10.558634  11.912026  47.380889
C  11.446958  13.123980  47.511348
H  12.299919  12.940564  47.110992
H  11.567540  13.332165  48.439529
H  11.038062  13.867687  47.063117
C  10.132153  8.961633  45.026027
H  9.378130  9.058027  44.435965
H  10.176212  8.057269  45.345594
H  10.939510  9.171825  44.549669
C  7.717426  10.127063  49.204934
H  6.914320  9.898127  48.732765
H  7.557810  10.898885  49.756097
H  7.984870  9.389381  49.756097
C  8.301397  8.270139  47.108598
H  8.742371  7.642239  46.518537
H  8.209028  7.863142  47.984715
C  6.008411  7.766079  46.712431
C  4.723752  8.251396  46.498190
H  4.589643  9.158437  46.333020
C  3.637936  7.384184  46.532899
H  2.778984  7.709180  46.386880
C  3.836973  6.031321  46.781252
H  3.109425  5.449944  46.805788
C  5.121633  5.545334  46.994895
C  6.207449  6.412546  46.960185
H  7.066980  6.085877  47.105008
C  5.316032  4.138249  47.240854
C  9.151073  12.609544  49.348559
H  9.642869  13.432575  49.217501
H  8.209028  12.803336  49.229470
C  8.518792  12.655733  51.620238
C  8.506425  11.955538  52.820708
H  9.045758  11.206810  52.927829
C  7.687860  12.375923  53.861994
H  7.679551  11.906336  54.663305
C  6.881856  13.497507  53.703407
H  6.334600  13.780665  54.399991
C  6.894223  14.197703  52.502937
C  7.712788  13.777318  51.461651
H  7.720131  14.245900  50.659741
C  6.053243  15.405306  52.341358
Mn  9.516490  17.131696  41.550288
Mn  11.686189  15.015713  39.605956
Mn  13.031719  12.687195  37.451572
O  8.730390  15.353762  42.718443
O  10.208483  14.792467  41.280391
O  9.511659  9.742491  40.915343
O  8.735801  6.409868  36.001552
O  10.207903  5.992161  31.230788
O  8.440530  5.222347  30.143423
O  13.151721  4.770500  40.090692
O  17.739239  2.832579  40.354605
O  17.390054  0.861522  41.282187
O  12.889688  13.525622  40.743591
O  13.896468  12.153346  39.391715
O  12.722728  10.850018  45.043382
O  6.986592  8.665087  46.572396
O  6.464264  3.762045  47.619666
O  4.442201  3.278736  47.030801
O  9.362671  12.158032  50.665726
O  5.962807  15.938820  51.224070
O  5.450141  15.866190  53.360501
O  8.373282  18.750982  42.167878
O  8.415795  19.032131  41.994330
H  7.494040  18.848045  42.143940
H  8.777154  19.477284  42.760333
H  9.024501  19.765128  41.940471
H  7.739455  19.132542  41.324077
H  7.474716  18.479874  42.335441
H  8.759762  19.078989  42.981756
H  8.939476  19.517448  42.215753
H  7.652497  18.921680  41.569438
C  -9.968672  25.609016  2.192086
C  -10.327905  24.214315  2.397351
C  -11.381063  23.883629  3.257309
H  -11.754982  24.546004  3.792314
C  -11.867835  22.621470  3.326130
H  -12.570455  22.417302  3.900033
C  -11.329081  21.672926  2.563119
H  -11.669957  20.810735  2.601419
C  -10.253508  21.950728  1.695381
C  -9.759200  23.227280  1.615190
H  -9.051555  23.424754  1.045475
C  -8.717829  21.040006  0.091561
H  -7.913371  21.312787  0.560738
H  -8.927881  21.711082  59.267702
C  -8.515121  19.685469  59.279073
C  -7.992020  18.638188  0.178335
C  -7.982744  17.379710  59.470573
C  -8.355311  17.178220  58.144430
C  -8.835319  18.250603  57.413137
C  -8.985660  19.534518  58.020553
C  -9.639198  20.643050  57.225825
H  -10.187806  21.175560  57.807509
H  -10.182009  20.261825  56.532831
H  -8.960732  21.198989  56.832051
C  -7.411720  18.843360  1.578086
H  -6.833160  19.609157  1.578086
H  -6.912388  18.066183  1.835415
H  -8.125935  18.983265  2.200464
C  -8.267387  15.815650  57.537612
H  -7.640903  15.284813  58.034916
H  -7.973276  15.887276  56.628582
H  29.515284  15.398612  57.562148
C  -7.570177  16.185830  0.438058
H  -7.716266  16.359205  1.380601
H  -8.098882  15.415347  0.183721
C  -5.677005  14.824599  0.826446
C  -6.437984  13.976465  1.622371
H  -7.337516  14.156869  1.769587
C  -5.853626  12.855885  2.201062
H  -6.363586  12.289235  2.733075
C  -4.508096  12.583103  1.983230
H  -4.118138  11.834041  2.368027
C  -3.746924  13.431571  1.187305
C  -4.331281  14.552152  0.608613
H  -3.822480  15.117463  0.076002
C  -2.324097  13.140716  0.958102
C  -9.283250  18.034386  55.978078
H  -9.227403  18.869466  55.491546
H  -8.697926  17.390086  55.545405
C  27.552159  17.128684  54.773418
C  26.251654  16.645375  54.824884
H  25.793482  16.643701  55.635171
C  25.636571  16.170433  53.692635
H  24.775107  15.823683  53.738117
C  26.312911  16.209928  52.467030
H  25.888170  15.924093  51.691452
C  27.609551  16.671816  52.416761
C  28.201446  17.160146  53.578932
H  -9.588762  17.513925  53.534647
C  28.351400  16.733067  51.119942
C  -5.812659  23.682809  0.603826
C  -5.451107  22.806895  1.752232
C  -4.414761  21.885462  1.655883
H  -3.901709  21.841616  0.877911
C  -4.143066  21.031303  2.718114
H  -3.449527  20.415787  2.655278
C  -4.907910  21.098244  3.877293
H  -4.726844  20.526239  4.588239
C  -5.944256  22.019677  3.973642
C  -6.215951  22.873835  2.910812
H  -6.908523  23.488347  2.972451
C  -7.826800  22.703807  5.148978
H  -8.303716  22.537795  4.318941
H  -7.666024  23.655698  5.222586
C  -8.661983  22.221837  6.336283
C  -9.338323  21.026952  6.259084
C  -10.257566  20.703965  7.294984
C  -10.491193  21.595945  8.301560
C  -9.747799  22.775768  8.420649
C  -8.765753  23.068966  7.485288
C  -7.877429  24.280920  7.615747
H  -7.024467  24.097504  7.215391
H  -7.756847  24.489105  8.543928
H  -8.286324  25.024627  7.167516
C  -9.192234  20.118572  5.130426
H  -9.946256  20.214966  4.540364
H  -9.148175  19.214209  5.449993
H  -8.384877  20.328765  4.654068
C  -11.606961  21.284003  9.309333
H  26.237934  21.055067  8.837163
H  -11.766577  22.055825  9.860496
H  -11.339516  20.546321  9.860496
C  -11.022989  19.427079  7.212997
H  -10.582016  18.799179  6.622935
H  27.532642  19.020082  8.089113
C  25.332025  18.923019  6.816830
C  24.047365  19.408336  6.602589
H  23.913257  20.315377  6.437419
C  22.961550  18.541124  6.637298
H  22.102598  18.866119  6.491279
C  23.160587  17.188261  6.885651
H  22.433038  16.606884  6.910187
C  24.445246  16.702274  7.099294
C  25.531062  17.569486  7.064584
H  26.390594  17.242817  7.209407
C  24.639646  15.295189  7.345253
C  -10.173313  23.766484  9.452958
H  -9.681517  24.589515  9.321900
H  -11.115358  23.960276  9.333869
C  -10.805594  23.812673  11.724636
C  -10.817962  23.112477  12.925107
H  -10.278629  22.363750  13.032228
C  -11.636526  23.532862  13.966393
H  -11.644836  23.063276  14.767704
C  -12.442530  24.654447  13.807806
H  -12.989786  24.937605  14.504390
C  -12.430163  25.354643  12.607335
C  -11.611598  24.934258  11.566050
H  -11.604255  25.402840  10.764140
C  -13.271143  26.562246  12.445757
Mn  -9.807316  28.288301  1.654687
Mn  -7.638004  26.172318  59.553757
Mn  -6.292088  23.843800  57.399373
O  -10.593997  26.510702  2.822841
O  -9.115904  25.949407  1.384790
O  -9.812727  20.899431  1.019742
O  28.059414  17.566808  55.949951
O  -9.116483  17.149101  51.179187
O  27.764143  16.379287  50.091822
O  -6.172665  15.927440  0.195091
O  -1.585148  13.989519  0.459003
O  -1.934332  12.018461  1.386585
O  -6.434699  24.682562  0.847989
O  -5.427918  23.310286  59.340114
O  -6.601658  22.006958  5.147781
O  26.310206  19.822027  6.676795
O  25.787878  14.918985  7.724065
O  23.765815  14.435676  7.135200
O  -9.961715  23.314972  10.770125
O  -13.361580  27.095760  11.328469
O  -13.874246  27.023130  13.464900
O  -10.951104  29.907922  2.272277
O  -10.908591  30.189071  2.098729
H  -11.830346  30.004985  2.248339
H  -10.547232  30.634224  2.864732
H  -10.299885  30.922067  2.044869
H  -11.584931  30.289481  1.428476
H  -11.849670  29.636814  2.439840
H  -10.564624  30.235929  3.086155
H  -10.384911  30.674388  2.320152
H  -11.671889  30.078620  1.673837
C  21.454278  23.189459  22.139886
C  22.841741  23.575704  22.345151
C  23.654702  22.828985  23.205109
H  23.268028  22.173974  23.740115
C  24.991149  23.038508  23.273930
H  25.519274  22.532105  23.847834
C  -13.104764  23.979354  22.510919
H  -12.187647  24.115243  22.549219
C  -13.883135  24.771927  21.643181
C  23.412185  24.561735  21.562990
H  22.887346  25.075836  20.993275
C  -13.862265  26.557225  20.039362
H  -14.500730  27.117515  20.508539
H  -14.338408  26.039777  19.371503
C  -12.790556  27.410044  19.382873
C  -12.145134  28.386703  20.126136
C  -11.059898  29.023975  19.574374
C  -10.699119  28.802068  18.248231
C  -11.387826  27.850177  17.516937
C  -12.424559  27.078021  18.124354
C  -13.057807  25.957775  17.329626
H  -13.244670  25.216411  17.911309
H  -12.456250  25.678299  16.636632
H  -13.878497  26.267374  16.935852
C  -12.612968  28.786672  21.525887
H  -13.565448  28.904821  21.525887
H  -12.189579  29.607695  21.783216
H  -12.377022  28.098191  22.148264
C  -9.563061  29.559498  17.641413
H  -9.416585  30.367467  18.138716
H  -9.772147  29.778392  16.732382
H  -8.769231  29.018620  17.665949
C  -10.232251  29.978209  20.385859
H  -10.309354  29.765004  21.328402
H  -9.300641  29.905579  20.131522
C  -9.999977  32.298360  20.774246
C  -8.884982  32.063399  21.570171
H  -8.591450  31.194180  21.717388
C  -8.206710  33.129758  22.148863
H  -7.460996  32.971445  22.680876
C  10.680761  0.961263  21.931031
H  11.134489  1.673507  22.315828
C  9.565380  1.196223  21.135105
C  8.887108  0.129864  20.556414
H  8.143134  0.287843  20.023802
C  9.105855  2.573855  20.905903
C  -10.976612  27.570366  16.081878
H  -11.727736  27.201191  15.595346
H  -10.711293  28.399422  15.649206
C  -9.285955  26.453468  14.877218
C  -8.217145  25.568852  14.928684
H  -7.986609  25.172900  15.738972
C  -7.498292  25.273645  13.796436
H  -6.767265  24.700971  13.841917
C  -7.870665  25.839625  12.570831
H  -7.410754  25.614706  11.795252
C  -8.918992  26.731605  12.520562
C  -9.637845  27.000035  13.682732
H  -10.373123  27.566015  13.638448
C  -9.342961  27.343439  11.223742
C  21.044416  27.751775  20.551626
C  21.622203  28.502845  21.700033
C  -16.745985  29.861064  21.603684
H  -16.964540  30.327303  20.825712
C  -16.142110  30.523438  22.665915
H  -15.955827  31.431818  22.603079
C  -15.817660  29.827593  23.825093
H  -15.412822  30.270403  24.536040
C  -16.097472  28.469375  23.921442
C  21.946653  27.807000  22.858613
H  21.760756  26.899959  22.920252
C  22.899326  26.496979  25.096778
H  23.281555  26.166963  24.266742
H  21.994577  26.160269  25.170386
C  -14.913683  26.014674  26.284083
C  -13.540713  26.026388  26.206884
C  -12.801377  25.391794  27.242784
C  -13.457040  24.743478  28.249360
C  23.797506  24.797365  28.368450
C  23.052566  25.501242  27.433088
C  21.558821  25.664576  27.563548
H  21.291183  26.494971  27.163192
H  21.318237  25.664911  28.491728
H  21.119200  24.938609  27.115316
C  -12.827078  26.607096  25.078227
H  -12.533546  25.905896  24.488165
H  -12.065906  27.097433  25.397794
H  -13.412788  27.201191  24.601868
C  -12.629007  23.933165  29.257133
H  -12.029190  23.352124  28.784964
H  -13.217616  23.409023  29.808296
H  -12.123878  24.533620  29.808296
C  -11.312849  25.367361  27.160798
H  -10.989559  26.063206  26.570736
H  -10.914195  25.490866  28.036914
C  -9.729827  23.633607  26.764631
C  -9.507794  22.278401  26.550389
H  -10.226261  21.708739  26.385220
C  -8.213859  21.771663  26.585099
H  -8.065838  20.865291  26.439079
C  -7.141764  22.620466  26.833451
H  -6.274503  22.281079  26.857987
C  -7.363217  23.976007  27.047094
C  -8.657152  24.482745  27.012385
H  -8.804014  25.390456  27.157207
C  -6.241845  24.847905  27.293053
C  23.152278  23.933500  29.400759
H  22.193614  23.947892  29.269700
H  23.455471  23.020769  29.281669
C  23.428418  23.362834  31.672437
C  24.040988  23.702221  32.872908
H  24.419739  24.543661  32.980028
C  24.086207  22.783131  33.914193
H  24.497035  23.010728  34.715504
C  23.517888  21.524319  33.755607
H  23.546294  20.908803  34.452191
C  22.905317  21.184931  32.555136
C  22.860099  22.104022  31.513850
H  22.450623  21.876090  30.711941
C  22.279992  19.852819  32.393557
Mn  19.053464  21.989219  21.602487
Mn  19.801110  24.926225  19.657557
Mn  21.144514  27.255747  17.503173
O  20.986057  22.197069  22.770642
O  20.733106  23.757782  21.332591
O  -13.193075  25.679303  20.967542
O  -9.919009  26.673701  16.053751
O  -10.293315  28.157433  11.282988
O  -8.742951  27.011750  10.195622
O  -10.707235  31.317684  20.142892
O  8.001295  2.789402  20.406804
O  9.882873  3.472528  21.334386
O  20.489624  26.713196  20.795790
O  21.174659  28.271231  19.443914
O  -15.757756  27.906407  25.095581
O  -10.997482  24.031233  26.624596
O  -6.490159  26.030405  27.671866
O  -5.060569  24.520901  27.083001
O  23.437500  24.342505  30.717925
O  21.863174  19.507742  31.276270
O  22.182406  19.100076  33.412701
O  18.222532  20.189194  22.220077
O  17.957793  20.085437  22.046530
H  18.578094  19.379217  22.196140
H  17.391600  20.175806  22.812533
H  17.018647  20.246094  21.992670
H  18.209005  19.449504  21.376277
H  18.906602  19.546567  22.387640
H  17.745229  20.359892  23.033956
H  17.275656  20.296299  22.267952
H  18.435096  19.479627  21.621637
C  21.454471  0.875914  42.087687
C  22.841934  1.262159  42.292952
C  23.654895  0.515440  43.152910
H  3.944222  33.330579  43.687915
C  24.991343  0.724963  43.221731
H  25.519468  0.218560  43.795635
C  25.543429  1.665809  42.458720
H  26.460546  1.801698  42.497020
C  24.765059  2.458383  41.590982
C  23.412379  2.248190  41.510791
H  22.887539  2.762291  40.941076
C  24.785929  4.243680  39.987162
H  24.147464  4.803971  40.456339
H  24.309785  3.726232  39.319303
C  25.857638  5.096500  39.330674
C  26.503059  6.073159  40.073936
C  27.588295  6.710430  39.522174
C  27.949074  6.488523  38.196031
C  27.260367  5.536632  37.464738
C  26.223634  4.764476  38.072154
C  25.590387  3.644230  37.277426
H  25.403524  2.902866  37.859110
H  26.191943  3.364754  36.584433
H  24.769696  3.953829  36.883653
C  26.035225  6.473127  41.473687
H  25.082745  6.591277  41.473687
H  26.458614  7.294150  41.731017
H  26.271171  5.784646  42.096065
C  29.085132  7.245953  37.589213
H  29.231608  8.053922  38.086517
H  28.876046  7.464848  36.680183
H  29.878962  6.705075  37.613749
C  28.415942  7.664664  40.333659
H  28.338839  7.451459  41.276202
H  29.347552  7.592034  40.079322
C  28.648216  9.984815  40.722047
C  29.763211  9.749855  41.517972
H  30.056743  8.880635  41.665188
C  30.441484  10.816214  42.096663
H  31.187197  10.657900  42.628677
C  30.004955  12.117868  41.878831
H  30.458682  12.830113  42.263628
C  28.889573  12.352828  41.082906
C  28.211301  11.286469  40.504215
H  27.467327  11.444448  39.971603
C  28.430049  13.730460  40.853703
C  27.671582  5.256822  36.029679
H  26.920458  4.887646  35.543147
H  27.936900  6.085877  35.597007
C  29.362238  4.139923  34.825019
C  30.431049  3.255307  34.876485
H  30.661584  2.859355  35.686773
C  31.149902  2.960100  33.744236
H  31.880928  2.387426  33.789718
C  30.777528  3.526080  32.518631
H  31.237439  3.301161  31.743053
C  29.729201  4.418060  32.468362
C  29.010348  4.686490  33.630533
H  28.275070  5.252471  33.586248
C  29.305232  5.029894  31.171543
C  21.044609  5.438230  40.499427
C  21.622397  6.189300  41.647833
C  21.902208  7.547519  41.551485
H  21.683654  8.013758  40.773513
C  22.506083  8.209893  42.613716
H  22.692366  9.118273  42.550879
C  22.830533  7.514049  43.772894
H  23.235371  7.956859  44.483841
C  22.550722  6.155830  43.869243
C  21.946847  5.493456  42.806413
H  21.760950  4.586415  42.868053
C  22.899520  4.183434  45.044579
H  23.281748  3.853418  44.214543
H  21.994770  3.846724  45.118187
C  23.734510  3.701129  46.231884
C  25.107480  3.712844  46.154685
C  25.846816  3.078250  47.190585
C  25.191153  2.429933  48.197161
C  23.797699  2.483820  48.316250
C  23.052759  3.187697  47.380889
C  21.559014  3.351031  47.511348
H  21.291376  4.181426  47.110992
H  21.318430  3.351366  48.439529
H  21.119393  2.625064  47.063117
C  25.821115  4.293551  45.026027
H  26.114647  3.592351  44.435965
H  26.582288  4.783889  45.345594
H  25.235405  4.887646  44.549669
C  26.019186  1.619621  49.204934
H  26.619003  1.038579  48.732765
H  25.430577  1.095478  49.756097
H  26.524316  2.220075  49.756097
C  27.335344  3.053816  47.108598
H  27.658634  3.749661  46.518537
H  27.733998  3.177321  47.984715
C  28.918366  1.320063  46.712431
C  9.816399  33.435006  46.498190
H  9.097932  32.865344  46.333020
C  11.110334  32.928268  46.532899
H  11.258356  32.021896  46.386880
C  31.506429  0.306921  46.781252
H  13.049690  33.437684  46.805788
C  31.284976  1.662462  46.994895
C  29.991041  2.169200  46.960185
H  29.844179  3.076911  47.105008
C  32.406348  2.534360  47.240854
C  23.152471  1.619955  49.348559
H  22.193807  1.634347  49.217501
H  23.455664  0.707224  49.229470
C  23.428611  1.049289  51.620238
C  24.041182  1.388677  52.820708
H  24.419932  2.230116  52.927829
C  24.086400  0.469586  53.861994
H  24.497228  0.697183  54.663305
C  4.194081  32.680924  53.703407
H  4.222487  32.065408  54.399991
C  3.581510  32.341536  52.502937
C  3.536292  33.260627  51.461651
H  3.126816  33.032695  50.659741
C  2.956186  31.009424  52.341358
Mn  -0.270922  33.146159  41.550288
Mn  19.800916  2.612680  39.605956
Mn  21.144707  4.942202  37.451572
O  1.662250  33.353674  42.718443
O  20.733299  1.444237  41.280391
O  25.455119  3.365758  40.915343
O  28.729184  4.360156  36.001552
O  28.354878  5.843888  31.230788
O  29.905243  4.698205  30.143423
O  27.940958  9.004140  40.090692
O  27.325489  13.946007  40.354605
O  29.207067  14.629133  41.282187
O  20.489817  4.399651  40.743591
O  21.174853  5.957687  39.391715
O  22.890437  5.592862  45.043382
O  27.650712  1.717688  46.572396
O  32.158035  3.716860  47.619666
O  33.587624  2.207356  47.030801
O  23.437693  2.028960  50.665726
O  2.539367  30.664347  51.224070
O  2.858599  30.256681  53.360501
O  -1.101275  31.345799  42.167878
O  -1.366014  31.242042  41.994330
H  -0.745713  30.535822  42.143940
H  -1.932207  31.332411  42.760333
H  -2.305160  31.402699  41.940471
H  -1.114802  30.606109  41.324077
H  -0.417205  30.703173  42.335441
H  -1.578578  31.516497  42.981756
H  -2.048151  31.452904  42.215753
H  -0.888711  30.636232  41.569438
C  2.130085  12.032854  2.192086
C  3.517548  12.419099  2.397351
C  4.330508  11.672380  3.257309
H  3.943835  11.017369  3.792314
C  5.666956  11.881903  3.326130
H  6.195081  11.375500  3.900033
C  6.219043  12.822749  2.563119
H  7.136160  12.958638  2.601419
C  5.440672  13.615322  1.695381
C  4.087992  13.405130  1.615190
H  3.563152  13.919231  1.045475
C  5.461542  15.400620  0.091561
H  4.823077  15.960910  0.560738
H  4.985399  14.883172  59.267702
C  6.533251  16.253439  59.279073
C  7.178673  17.230098  0.178335
C  8.263909  17.867370  59.470573
C  8.624688  17.645463  58.144430
C  7.935980  16.693572  57.413137
C  6.899248  15.921416  58.020553
C  6.266000  14.801170  57.225825
H  6.079137  14.059806  57.807509
H  6.867556  14.521694  56.532831
H  5.445310  15.110769  56.832051
C  6.710839  17.630067  1.578086
H  5.758359  17.748216  1.578086
H  7.134228  18.451089  1.835415
H  6.946785  16.941586  2.200464
C  9.760746  18.402892  57.537612
H  9.907222  19.210862  58.034916
H  9.551660  18.621787  56.628582
H  10.554576  17.862015  57.562148
C  9.091556  18.821604  0.438058
H  9.014453  18.608399  1.380601
H  10.023166  18.748974  0.183721
C  9.323830  21.141755  0.826446
C  10.438825  20.906794  1.622371
H  10.732356  20.037575  1.769587
C  11.117097  21.973153  2.201062
H  11.862810  21.814840  2.733075
C  10.680568  23.274807  1.983230
H  11.134296  23.987052  2.368027
C  9.565187  23.509768  1.187305
C  8.886914  22.443409  0.608613
H  8.142940  22.601388  0.076002
C  9.105662  24.887399  0.958102
C  8.347195  16.413761  55.978078
H  7.596071  16.044586  55.491546
H  8.612514  17.242817  55.545405
C  10.037852  15.296863  54.773418
C  11.106662  14.412247  54.824884
H  11.337198  14.016295  55.635171
C  11.825515  14.117040  53.692635
H  12.556542  13.544366  53.738117
C  11.453142  14.683020  52.467030
H  11.913053  14.458101  51.691452
C  10.404815  15.575000  52.416761
C  9.685962  15.843430  53.578932
H  8.950684  16.409410  53.534647
C  9.980846  16.186834  51.119942
C  1.720222  16.595170  0.603826
C  2.298010  17.346240  1.752232
C  2.577822  18.704459  1.655883
H  2.359267  19.170698  0.877911
C  3.181697  19.366833  2.718114
H  3.367980  20.275213  2.655278
C  3.506147  18.670988  3.877293
H  3.910984  19.113798  4.588239
C  3.226335  17.312770  3.973642
C  2.622460  16.650395  2.910812
H  2.436563  15.743354  2.972451
C  3.575133  15.340374  5.148978
H  3.957362  15.010358  4.318941
H  2.670384  15.003664  5.222586
C  4.410123  14.858069  6.336283
C  5.783093  14.869783  6.259084
C  6.522430  14.235189  7.294984
C  5.866766  13.586873  8.301560
C  4.473313  13.640760  8.420649
C  3.728373  14.344637  7.485288
C  2.234627  14.507971  7.615747
H  1.966990  15.338366  7.215391
H  1.994044  14.508306  8.543928
H  1.795006  13.782004  7.167516
C  6.496729  15.450491  5.130426
H  6.790260  14.749291  4.540364
H  7.257901  15.940828  5.449993
H  5.911018  16.044586  4.654068
C  6.694800  12.776560  9.309333
H  7.294617  12.195518  8.837163
H  6.106191  12.252418  9.860496
H  7.199929  13.377015  9.860496
C  8.010957  14.210756  7.212997
H  8.334248  14.906601  6.622935
H  8.409612  14.334261  8.089113
C  9.593980  12.477002  6.816830
C  9.816012  11.121796  6.602589
H  9.097546  10.552134  6.437419
C  11.109947  10.615058  6.637298
H  11.257969  9.708686  6.491279
C  12.182043  11.463861  6.885651
H  13.049304  11.124474  6.910187
C  11.960590  12.819402  7.099294
C  10.666655  13.326140  7.064584
H  10.519792  14.233851  7.209407
C  13.081962  13.691299  7.345253
C  3.828084  12.776895  9.452958
H  2.869421  12.791287  9.321900
H  4.131278  11.864164  9.333869
C  4.104224  12.206229  11.724636
C  4.716795  12.545616  12.925107
H  5.095546  13.387056  13.032228
C  4.762013  11.626526  13.966393
H  5.172842  11.854123  14.767704
C  4.193694  10.367714  13.807806
H  4.222101  9.752198  14.504390
C  3.581124  10.028326  12.607335
C  3.535906  10.947417  11.566050
H  3.126430  10.719485  10.764140
C  2.955799  8.696214  12.445757
Mn  -0.270729  10.832614  1.654687
Mn  0.477110  13.769285  59.553757
Mn  1.820707  16.099142  57.399373
O  1.661864  11.040464  2.822841
O  1.408913  12.601177  1.384790
O  6.130732  14.522698  1.019742
O  9.404798  15.517096  55.949951
O  9.030492  17.000828  51.179187
O  10.580856  15.855145  50.091822
O  8.616572  20.161079  0.195091
O  8.001102  25.102947  0.459003
O  9.882680  25.786073  1.386585
O  1.165430  15.556591  0.847989
O  1.850466  17.114626  59.340114
O  3.566051  16.749802  5.147781
O  8.326325  12.874628  6.676795
O  12.833648  14.873800  7.724065
O  14.263238  13.364296  7.135200
O  4.113307  13.185900  10.770125
O  2.538980  8.351137  11.328469
O  2.858213  7.943471  13.464900
O  -1.101661  9.032589  2.272277
O  -1.366400  8.928832  2.098729
H  -0.746100  8.222612  2.248339
H  -1.932593  9.019201  2.864732
H  -2.305546  9.089489  2.044869
H  -1.115188  8.292899  1.428476
H  -0.417592  8.389962  2.439840
H  -1.578964  9.203287  3.086155
H  -2.048537  9.139694  2.320152
H  -0.889097  8.323022  1.673837
C  2.130278  10.280691  7.782114
C  3.517741  9.894446  7.576849
C  4.330702  10.641165  6.716891
H  3.944028  11.296176  6.181885
C  5.667149  10.431642  6.648070
H  6.195274  10.938045  6.074166
C  6.219236  9.490796  7.411081
H  7.136353  9.354907  7.372781
C  5.440865  8.698223  8.278819
C  4.088185  8.908415  8.359010
H  3.563346  8.394314  8.928725
C  5.461735  6.912925  9.882638
H  4.823270  6.352634  9.413461
H  4.985592  7.430373  10.550497
C  6.533444  6.060105  10.539127
C  7.178866  5.083446  9.795864
C  8.264102  4.446175  10.347626
C  8.624881  4.668082  11.673769
C  7.936174  5.619973  12.405063
C  6.899441  6.392129  11.797646
C  6.266193  7.512375  12.592374
H  6.079330  8.253739  12.010691
H  6.867750  7.791851  13.285368
H  5.445503  7.202776  12.986148
C  6.711032  4.683478  8.396113
H  5.758552  4.565328  8.396113
H  7.134421  3.862455  8.138784
H  6.946978  5.371959  7.773736
C  9.760939  3.910652  12.280587
H  9.907415  3.102683  11.783284
H  9.551853  3.691758  13.189618
H  10.554769  4.451530  12.256051
C  9.091749  3.491941  9.536141
H  9.014646  3.705146  8.593598
H  10.023359  3.564571  9.790478
C  9.324023  1.171790  9.147754
C  10.439018  1.406750  8.351829
H  10.732550  2.275970  8.204612
C  11.117290  0.340391  7.773137
H  11.863004  0.498705  7.241124
C  -8.643239  32.508887  7.990969
H  -8.189511  31.796642  7.606172
C  -9.758620  32.273927  8.786895
C  -10.436892  33.340286  9.365586
H  -11.180866  33.182307  9.898198
C  -10.218145  30.896295  9.016097
C  8.347388  5.899783  13.840122
H  7.596264  6.268959  14.326654
H  8.612707  5.070728  14.272794
C  10.038045  7.016682  15.044782
C  11.106855  7.901298  14.993316
H  11.337391  8.297250  14.183028
C  11.825708  8.196505  16.125564
H  12.556735  8.769179  16.080083
C  11.453335  7.630525  17.351169
H  11.913246  7.855444  18.126748
C  10.405008  6.738545  17.401438
C  9.686155  6.470115  16.239268
H  8.950877  5.904134  16.283552
C  9.981039  6.126711  18.698258
C  1.720416  5.718375  9.370374
C  2.298203  4.967305  8.221967
C  2.578015  3.609086  8.318316
H  2.359460  3.142847  9.096288
C  3.181890  2.946712  7.256085
H  3.368173  2.038332  7.318921
C  3.506340  3.642556  6.096907
H  3.911178  3.199746  5.385960
C  3.226528  5.000775  6.000558
C  2.622653  5.663149  7.063387
H  2.436756  6.570190  7.001748
C  3.575326  6.973171  4.825222
H  3.957555  7.303187  5.655258
H  2.670577  7.309881  4.751614
C  4.410317  7.455476  3.637917
C  5.783287  7.443761  3.715116
C  6.522623  8.078355  2.679216
C  5.866960  8.726672  1.672640
C  4.473506  8.672785  1.553550
C  3.728566  7.968908  2.488912
C  2.234821  7.805574  2.358452
H  1.967183  6.975179  2.758808
H  1.994237  7.805239  1.430272
H  1.795200  8.531541  2.806684
C  6.496922  6.863054  4.843773
H  6.790454  7.564254  5.433835
H  7.258094  6.372717  4.524206
H  5.911212  6.268959  5.320132
C  6.694993  9.536984  0.664867
H  7.294810  10.118026  1.137036
H  6.106384  10.061127  0.113704
H  7.200122  8.936530  0.113704
C  8.011151  8.102789  2.761202
H  8.334441  7.406944  3.351264
H  8.409805  7.979284  1.885086
C  9.594173  9.836542  3.157369
C  9.816206  11.191749  3.371611
H  9.097739  11.761411  3.536780
C  11.110141  11.698487  3.336901
H  11.258162  12.604858  3.482921
C  12.182236  10.849684  3.088549
H  13.049497  11.189071  3.064013
C  11.960783  9.494143  2.874906
C  10.666848  8.987405  2.909615
H  10.519986  8.079694  2.764793
C  13.082155  8.622245  2.628947
C  3.828278  9.536650  0.521241
H  2.869614  9.522258  0.652300
H  4.131471  10.449381  0.640331
C  4.104418  10.107316  58.093563
C  4.716988  9.767929  56.893092
H  5.095739  8.926489  56.785972
C  4.762207  10.687019  55.851807
H  5.173035  10.459422  55.050496
C  4.193888  11.945831  56.010393
H  4.222294  12.561347  55.313809
C  3.581317  12.285218  57.210864
C  3.536099  11.366128  58.252150
H  3.126623  11.594060  59.054059
C  2.955992  13.617330  57.372443
Mn  -0.270922  11.480931  8.319513
Mn  0.477110  8.543925  10.264443
Mn  1.820514  6.214403  12.418827
O  1.662057  11.273081  7.151358
O  1.409106  9.712368  8.589409
O  6.130925  7.790847  8.954458
O  9.404991  6.796449  13.868249
O  9.030685  5.312717  18.639012
O  10.581049  6.458400  19.726378
O  8.616765  2.152465  9.779108
O  -11.322705  30.680748  9.515196
O  -9.441127  29.997622  8.587614
O  1.165624  6.756954  9.126210
O  1.850659  5.198918  10.478086
O  3.566244  5.563743  4.826419
O  8.326518  9.438917  3.297404
O  12.833841  7.439745  2.250134
O  14.263431  8.949249  2.838999
O  4.113500  9.127645  59.048075
O  2.539174  13.962408  58.489730
O  2.858406  14.370074  56.353299
O  -1.101468  13.280955  7.701923
O  -1.366207  13.384713  7.875470
H  -0.745906  14.090933  7.725860
H  -1.932400  13.294344  7.109467
H  -2.305353  13.224056  7.929330
H  -1.114995  14.020646  8.545723
H  -0.417398  13.923582  7.534360
H  -1.578771  13.110258  6.888044
H  -2.048344  13.173851  7.654048
H  -0.888904  13.990523  8.300363
C  21.454471  21.437296  27.729914
C  22.841934  21.051051  27.524649
C  23.654895  21.797770  26.664691
H  23.268222  22.452781  26.129686
C  24.991343  21.588247  26.595870
H  25.519468  22.094650  26.021967
C  25.543429  20.647401  27.358881
H  26.460546  20.511512  27.320581
C  24.765059  19.854828  28.226619
C  23.412379  20.065020  28.306810
H  22.887539  19.550919  28.876525
C  24.785929  18.069530  29.830439
H  24.147464  17.509239  29.361262
H  24.309785  18.586978  30.498298
C  25.857638  17.216710  30.486927
C  26.503059  16.240051  29.743665
C  27.588295  15.602780  30.295427
C  27.949074  15.824687  31.621570
C  27.260367  16.776578  32.352863
C  26.223634  17.548734  31.745447
C  25.590387  18.668980  32.540175
H  25.403524  19.410344  31.958491
H  26.191943  18.948456  33.233169
H  24.769696  18.359381  32.933949
C  26.035225  15.840083  28.343914
H  25.082745  15.721933  28.343914
H  26.458614  15.019060  28.086585
H  26.271171  16.528564  27.721536
C  29.085132  15.067257  32.228388
H  29.231608  14.259288  31.731084
H  28.876046  14.848363  33.137418
H  -8.769038  15.608135  32.203852
C  28.415942  14.648546  29.483942
H  28.338839  14.861751  28.541399
H  29.347552  14.721176  29.738279
C  28.648216  12.328395  29.095554
C  29.763211  12.563355  28.299629
H  30.056743  13.432575  28.152413
C  30.441484  11.496996  27.720938
H  31.187197  11.655310  27.188925
C  30.004955  10.195342  27.938770
H  30.458682  9.483098  27.553973
C  28.889573  9.960382  28.734695
C  28.211301  11.026741  29.313387
H  27.467327  10.868762  29.845998
C  28.430049  8.582751  28.963898
C  27.671582  17.056388  33.787922
H  26.920458  17.425564  34.274454
H  27.936900  16.227333  34.220595
C  -9.285762  18.173287  34.992582
C  -8.216951  19.057903  34.941116
H  -7.986416  19.453855  34.130829
C  -7.498098  19.353110  36.073365
H  -6.767072  19.925784  36.027883
C  -7.870472  18.787130  37.298970
H  -7.410561  19.012049  38.074548
C  -8.918799  17.895150  37.349239
C  -9.637652  17.626720  36.187068
H  28.275070  17.060739  36.231353
C  -9.342768  17.283316  38.646058
C  21.044609  16.874980  29.318174
C  21.622397  16.123910  28.169768
C  21.902208  14.765691  28.266117
H  21.683654  14.299452  29.044089
C  22.506083  14.103317  27.203886
H  22.692366  13.194937  27.266722
C  22.830533  14.799161  26.044707
H  23.235371  14.356351  25.333761
C  22.550722  16.157380  25.948358
C  21.946847  16.819754  27.011188
H  21.760950  17.726795  26.949549
C  22.899520  18.129776  24.773022
H  23.281748  18.459792  25.603059
H  21.994770  18.466486  24.699414
C  23.734510  18.612081  23.585717
C  25.107480  18.600366  23.662916
C  25.846816  19.234960  22.627016
C  25.191153  19.883277  21.620440
C  23.797699  19.829390  21.501351
C  23.052759  19.125513  22.436712
C  21.559014  18.962179  22.306253
H  21.291376  18.131784  22.706609
H  21.318430  18.961844  21.378072
H  21.119393  19.688146  22.754484
C  25.821115  18.019659  24.791574
H  26.114647  18.720859  25.381636
H  26.582288  17.529322  24.472007
H  25.235405  17.425564  25.267932
C  26.019186  20.693590  20.612667
H  -12.028997  21.274631  21.084837
H  25.430577  21.217732  20.061504
H  26.524316  20.093135  20.061504
C  27.335344  19.259394  22.709003
H  27.658634  18.563549  23.299065
H  -10.914002  19.135889  21.832887
C  -9.729634  20.993147  23.105170
C  -9.507601  22.348354  23.319411
H  -10.226068  22.918016  23.484581
C  -8.213666  22.855092  23.284702
H  -8.065644  23.761463  23.430721
C  -7.141571  22.006289  23.036349
H  -6.274310  22.345676  23.011813
C  -7.363024  20.650748  22.822706
C  -8.656959  20.144010  22.857416
H  -8.803821  19.236299  22.712593
C  -6.241652  19.778850  22.576747
C  23.152471  20.693255  20.469042
H  22.193807  20.678863  20.600100
H  23.455664  21.605986  20.588131
C  23.428611  21.263921  18.197364
C  24.041182  20.924534  16.996893
H  24.419932  20.083094  16.889772
C  24.086400  21.843624  15.955607
H  24.497228  21.616027  15.154296
C  23.518081  23.102436  16.114194
H  23.546487  23.717952  15.417610
C  22.905510  23.441824  17.314665
C  22.860292  22.522733  18.355950
H  22.450816  22.750665  19.157860
C  22.280186  24.773935  17.476243
Mn  19.053271  22.637536  28.267313
Mn  19.801110  19.700865  30.212243
Mn  21.144707  17.371008  32.366627
O  20.986250  22.429686  27.099159
O  20.733299  20.868973  28.537210
O  25.455119  18.947452  28.902258
O  -9.918816  17.953054  33.816049
O  28.354878  16.469322  38.586813
O  -8.742757  17.615005  39.674178
O  27.940958  13.309070  29.726909
O  27.325489  8.367203  29.462997
O  29.207067  7.684077  28.535415
O  20.489817  17.913559  29.074011
O  21.174853  16.355523  30.425886
O  22.890437  16.720348  24.774219
O  -10.997288  20.595522  23.245205
O  -6.489965  18.596350  22.197935
O  -5.060376  20.105854  22.786800
O  23.437693  20.284250  19.151875
O  21.863367  25.119013  18.593531
O  22.182599  25.526679  16.457100
O  18.222725  24.437560  27.649723
O  17.957986  24.541318  27.823271
H  18.578287  25.247538  27.673661
H  17.391793  24.450949  27.057268
H  17.018840  24.380661  27.877131
H  18.209198  25.177251  28.493524
H  18.906795  25.080187  27.482160
H  17.745422  24.266863  26.835845
H  17.275849  24.330456  27.601848
H  18.435289  25.147128  28.248163
C  2.130085  32.594236  47.678313
C  3.517548  32.207990  47.473048
C  4.330508  32.954709  46.613090
H  23.267835  0.139571  46.078085
C  5.666956  32.745186  46.544269
H  6.195081  33.251590  45.970365
C  6.219043  31.804340  47.307280
H  7.136160  31.668452  47.268980
C  5.440672  31.011767  48.175018
C  4.087992  31.221960  48.255209
H  3.563152  30.707858  48.824924
C  5.461542  29.226470  49.778838
H  4.823077  28.666179  49.309661
H  4.985399  29.743918  50.446697
C  6.533251  28.373650  50.435326
C  7.178673  27.396991  49.692064
C  8.263909  26.759719  50.243826
C  8.624688  26.981627  51.569969
C  7.935980  27.933518  52.301262
C  6.899248  28.705674  51.693846
C  6.266000  29.825920  52.488574
H  6.079137  30.567284  51.906890
H  6.867556  30.105396  53.181567
H  5.445310  29.516321  52.882347
C  6.710839  26.997023  48.292313
H  5.758359  26.878873  48.292313
H  7.134228  26.176000  48.034983
H  6.946785  27.685504  47.669935
C  9.760746  26.224197  52.176787
H  9.907222  25.416228  51.679483
H  9.551660  26.005302  53.085817
H  10.554576  26.765075  52.152251
C  9.091556  25.805486  49.432341
H  9.014453  26.018690  48.489798
H  10.023166  25.878116  49.686678
C  9.323830  23.485335  49.043953
C  10.438825  23.720295  48.248028
H  10.732356  24.589515  48.100812
C  11.117097  22.653936  47.669337
H  11.862810  22.812250  47.137323
C  10.680568  21.352282  47.887169
H  11.134296  20.640037  47.502372
C  9.565187  21.117322  48.683094
C  8.886914  22.183681  49.261785
H  8.142940  22.025701  49.794397
C  9.105662  19.739690  48.912297
C  8.347195  28.213328  53.736321
H  7.596071  28.582504  54.222853
H  8.612514  27.384272  54.168993
C  10.037852  29.330227  54.940981
C  11.106662  30.214843  54.889515
H  11.337198  30.610795  54.079227
C  11.825515  30.510050  56.021764
H  12.556542  31.082724  55.976282
C  11.453142  29.944070  57.247369
H  11.913053  30.168989  58.022947
C  10.404815  29.052090  57.297638
C  9.685962  28.783659  56.135467
H  8.950684  28.217679  56.179752
C  9.980846  28.440256  58.594457
C  1.720222  28.031920  49.266573
C  2.298010  27.280850  48.118167
C  2.577822  25.922631  48.214515
H  2.359267  25.456392  48.992487
C  3.181697  25.260257  47.152284
H  3.367980  24.351877  47.215121
C  3.506147  25.956101  45.993106
H  3.910984  25.513291  45.282159
C  3.226335  27.314320  45.896757
C  2.622460  27.976694  46.959587
H  2.436563  28.883735  46.897947
C  3.575133  29.286716  44.721421
H  3.957362  29.616731  45.551457
H  2.670384  29.623425  44.647813
C  4.410123  29.769021  43.534116
C  5.783093  29.757306  43.611315
C  6.522430  30.391900  42.575415
C  5.866766  31.040217  41.568839
C  4.473313  30.986330  41.449750
C  3.728373  30.282453  42.385111
C  2.234627  30.119118  42.254652
H  1.966990  29.288724  42.655008
H  1.994044  30.118784  41.326471
H  1.795006  30.845086  42.702883
C  6.496729  29.176599  44.739973
H  6.790260  29.877799  45.330035
H  7.257901  28.686261  44.420406
H  5.911018  28.582504  45.216331
C  6.694800  31.850529  40.561066
H  7.294617  32.431571  41.033235
H  6.106191  32.374672  40.009903
H  7.199929  31.250075  40.009903
C  8.010957  30.416333  42.657402
H  8.334248  29.720489  43.247463
H  8.409612  30.292828  41.781285
C  9.593980  32.150087  43.053569
C  29.140012  0.035144  43.267810
H  28.421546  0.604806  43.432980
C  30.433947  0.541882  43.233101
H  30.581969  1.448253  43.379120
C  12.182043  33.163229  42.984748
H  32.373304  0.032466  42.960212
C  11.960590  31.807687  42.771105
C  10.666655  31.300949  42.805815
H  10.519792  30.393239  42.660992
C  13.081962  30.935790  42.525146
C  3.828084  31.850195  40.417441
H  2.869421  31.835802  40.548499
H  4.131278  32.762926  40.536530
C  4.104224  32.420861  38.145762
C  4.716795  32.081473  36.945292
H  5.095546  31.240034  36.838171
C  4.762013  33.000564  35.904006
H  5.172842  32.772967  35.102695
C  23.517694  0.789226  36.062593
H  23.546101  1.404742  35.366009
C  22.905124  1.128613  37.263063
C  22.859906  0.209523  38.304349
H  22.450430  0.437455  39.106259
C  22.279799  2.460725  37.424642
Mn  19.053464  0.323991  48.215712
Mn  0.476916  30.857470  50.160044
Mn  1.820707  28.527947  52.314428
O  20.985864  0.116476  47.047557
O  1.408913  32.025913  48.485609
O  6.130732  30.104392  48.850657
O  9.404798  29.109993  53.764448
O  9.030492  27.626262  58.535212
O  10.580856  28.771945  59.622577
O  8.616572  24.466010  49.675308
O  8.001102  19.524142  49.411395
O  9.882680  18.841017  48.483813
O  1.165430  29.070499  49.022409
O  1.850466  27.512463  50.374285
O  3.566051  27.877288  44.722618
O  8.326325  31.752462  43.193604
O  12.833648  29.753290  42.146334
O  14.263238  31.262793  42.735199
O  4.113307  31.441189  39.100274
O  21.862980  2.805803  38.541930
O  22.182213  3.213469  36.405499
O  18.222339  2.124350  47.598122
O  17.957600  2.228108  47.771670
H  18.577900  2.934328  47.622060
H  17.391407  2.137738  47.005667
H  17.018454  2.067451  47.825529
H  18.208812  2.864041  48.441923
H  18.906408  2.766977  47.430559
H  17.745036  1.953653  46.784244
H  17.275463  2.017246  47.550247
H  18.434903  2.833918  48.196562
C  -11.485799  26.484930  7.782114
C  -12.514029  25.476474  7.576849
C  -12.273832  24.399070  6.716891
H  -11.513239  24.406433  6.181885
C  -13.123508  23.346434  6.648070
H  -12.949012  22.635862  6.074166
C  24.433652  23.338735  7.411081
H  23.857410  22.612433  7.372781
C  24.136449  24.409111  8.278819
C  -13.653179  25.475470  8.359010
H  -13.835984  26.187045  8.928725
C  22.579901  25.283686  9.882638
H  22.413908  26.116758  9.413461
H  23.266096  25.437314  10.550497
C  21.305483  24.781968  10.539127
C  20.136961  24.711346  9.795864
C  19.042449  24.090140  10.347626
C  19.054237  23.666743  11.673769
C  20.222952  23.787235  12.405063
C  21.410026  24.298994  11.797646
C  22.696811  24.287280  12.592374
H  23.432282  24.078426  12.010691
H  22.638066  23.626579  13.285368
H  22.839036  25.152818  12.986148
C  20.024495  25.316487  8.396113
H  20.398414  26.200433  8.396113
H  19.101774  25.360333  8.138784
H  20.502764  24.767911  7.773736
C  17.830255  23.061603  12.280587
H  17.057295  23.338735  11.783284
H  17.745229  23.352124  13.189618
H  17.901754  22.103687  12.256051
C  17.802235  23.850494  9.536141
H  18.025427  23.810665  8.593598
H  17.399330  23.007381  9.790478
C  15.676788  24.809414  9.147754
C  15.322773  23.726320  8.351829
H  15.928773  23.037504  8.204612
C  14.060142  23.672098  7.773137
H  13.824390  22.947135  7.241124
C  13.151141  24.700971  7.990969
H  12.307456  24.664153  7.606172
C  13.505350  25.784399  8.786895
C  14.767981  25.838621  9.365586
H  15.003154  26.561911  9.898198
C  12.542049  26.871175  9.016097
C  20.259668  23.291208  13.840122
H  20.954946  23.757112  14.326654
H  19.409026  23.475963  14.272794
C  20.381603  21.268607  15.044782
C  20.613297  19.900682  14.993316
H  20.840934  19.503056  14.183028
C  20.509527  19.130534  16.125564
H  20.639964  18.211109  16.080083
C  20.205561  19.736009  17.351169
H  20.170391  19.225254  18.126748
C  19.957247  21.089876  17.401438
C  20.084206  21.846636  16.239268
H  19.961692  22.766396  16.283552
C  19.639368  21.762961  18.698258
C  -15.231950  29.121039  9.370374
C  -16.171289  28.996195  8.221967
C  21.160553  29.432980  8.318316
H  20.866055  29.855374  9.096288
C  20.284983  29.241196  7.256085
H  19.405161  29.534060  7.318921
C  20.725376  28.612292  6.096907
H  20.139473  28.483097  5.385960
C  22.041534  28.175507  6.000558
C  -15.730895  28.367291  7.063387
H  -14.852426  28.074762  7.001748
C  -15.072720  26.887241  4.825222
H  -14.978032  26.391213  5.655258
H  -14.328746  27.502422  4.751614
C  23.575473  25.922966  3.637917
C  22.878843  24.739796  3.715116
C  23.058749  23.782215  2.679216
C  23.948040  24.025878  1.672640
C  -14.049901  25.259587  1.553550
C  -14.287006  26.256663  2.488912
C  -13.681585  27.631952  2.358452
H  -14.266909  28.278930  2.758808
H  -13.561583  27.840471  1.430272
H  -12.833068  27.649691  2.806684
C  22.019118  24.412123  4.843773
H  22.479609  23.807318  5.433835
H  21.213887  23.998097  4.524206
H  21.797472  25.216411  5.320132
C  24.235774  22.903624  0.664867
H  24.439063  22.093646  1.137036
H  24.984000  23.151303  0.113704
H  23.463201  22.766396  0.113704
C  22.335645  22.480896  2.761202
H  21.571381  22.548840  3.351264
H  22.029360  22.197403  1.885086
C  23.045609  20.243081  3.157369
C  24.108236  19.373192  3.371611
H  24.960811  19.710571  3.536780
C  23.900116  17.999242  3.336901
H  24.611046  17.417866  3.482921
C  22.628984  17.495182  3.088549
H  22.489271  16.574418  3.064013
C  21.565777  18.364736  2.874906
C  21.773897  19.738686  2.909615
H  21.061228  20.319728  2.764793
C  20.250006  17.829549  2.628947
C  -12.979158  25.386439  0.521241
H  -12.512290  26.223862  0.652300
H  -12.340306  24.667500  0.640331
C  -12.623017  24.861962  58.093563
C  -13.223220  24.501154  56.893092
H  -14.141303  24.593866  56.785972
C  -12.449873  24.002449  55.851807
H  -12.852392  23.760459  55.050496
C  -11.075551  23.865221  56.010393
H  -10.556701  23.532862  55.313809
C  -10.475347  24.226029  57.210864
C  -11.248694  24.724734  58.252150
H  -10.846561  24.965385  59.054059
C  -9.009042  24.101520  57.372443
Mn  -9.246148  27.964310  8.319513
Mn  -12.163299  28.784998  10.264443
Mn  -14.852426  28.786337  12.418827
O  -10.392254  26.394225  7.151358
O  -11.617396  27.393644  8.589409
O  23.005608  24.265189  8.954458
O  20.507402  21.926965  13.868249
O  19.409605  22.992989  18.639012
O  19.626614  21.077492  19.726378
O  16.879707  24.931580  9.779108
O  12.907659  27.935526  9.515196
O  11.375266  26.647594  8.587614
O  -14.055118  29.082213  9.126210
O  -15.746934  29.267972  10.478086
O  22.359221  27.599820  4.826419
O  23.335083  21.539715  3.297404
O  19.350087  18.635845  2.250134
O  19.942561  16.643032  2.838999
O  -13.475978  25.343932  59.048075
O  -8.501787  24.289957  58.489730
O  -8.308354  23.809660  56.353299
O  -7.271621  27.783571  7.701923
O  -7.049395  27.960963  7.875470
H  -6.747941  27.070657  7.725860
H  -6.844561  28.496486  7.109467
H  -6.718955  28.854616  7.929330
H  -6.624267  27.425441  8.545723
H  -7.057125  26.869836  7.534360
H  -7.180798  28.282277  6.888044
H  -6.890938  28.657142  7.654048
H  -6.763400  27.244702  8.300363
C  27.162394  4.171385  27.729914
C  26.134164  3.162929  27.524649
C  26.374361  2.085525  26.664691
H  27.134954  2.092888  26.129686
C  25.524685  1.032889  26.595870
H  25.699181  0.322318  26.021967
C  24.433845  1.025191  27.358881
H  23.857604  0.298888  27.320581
C  24.136642  2.095566  28.226619
C  24.995014  3.161925  28.306810
H  24.812209  3.873500  28.876525
C  22.580094  2.970141  29.830439
H  22.414101  3.803213  29.361262
H  23.266289  3.123769  30.498298
C  21.305676  2.468424  30.486927
C  20.137154  2.397802  29.743665
C  19.042643  1.776596  30.295427
C  19.054430  1.353198  31.621570
C  20.223146  1.473691  32.352863
C  21.410219  1.985449  31.745447
C  22.697004  1.973735  32.540175
H  23.432476  1.764881  31.958491
H  22.638259  1.313034  33.233169
H  22.839229  2.839273  32.933949
C  20.024688  3.002942  28.343914
H  20.398608  3.886888  28.343914
H  19.101967  3.046788  28.086585
H  20.502957  2.454366  27.721536
C  17.830448  0.748058  32.228388
H  17.057488  1.025191  31.731084
H  17.745422  1.038579  33.137418
H  -1.422053  33.260292  32.203852
C  17.802428  1.536949  29.483942
H  18.025620  1.497120  28.541399
H  17.399523  0.693836  29.738279
C  15.676981  2.495869  29.095554
C  15.322966  1.412775  28.299629
H  15.928966  0.723959  28.152413
C  14.060336  1.358553  27.720938
H  13.824583  0.633590  27.188925
C  13.151335  2.387426  27.938770
H  12.307649  2.350609  27.553973
C  13.505544  3.470855  28.734695
C  14.768174  3.525076  29.313387
H  15.003347  4.248366  29.845998
C  12.542242  4.557630  28.963898
C  20.259861  0.977663  33.787922
H  20.955139  1.443568  34.274454
H  19.409219  1.162418  34.220595
C  1.057796  32.425212  34.992582
C  1.289491  31.057287  34.941116
H  1.517127  30.659661  34.130829
C  1.185721  30.287139  36.073365
H  1.316158  29.367714  36.027883
C  0.881754  30.892614  37.298970
H  0.846584  30.381859  38.074548
C  0.633441  32.246481  37.349239
C  0.760399  33.003241  36.187068
H  19.961885  0.452851  36.231353
C  0.315561  32.919566  38.646058
C  23.416243  6.807494  29.318174
C  22.476904  6.682650  28.169768
C  21.160746  7.119436  28.266117
H  20.866248  7.541829  29.044089
C  20.285176  6.927652  27.203886
H  19.405354  7.220515  27.266722
C  20.725570  6.298747  26.044707
H  20.139666  6.169553  25.333761
C  22.041727  5.861962  25.948358
C  22.917298  6.053746  27.011188
H  23.795767  5.761217  26.949549
C  23.575473  4.573696  24.773022
H  23.670161  4.077668  25.603059
H  24.319447  5.188877  24.699414
C  23.575666  3.609421  23.585717
C  22.879036  2.426251  23.662916
C  23.058943  1.468670  22.627016
C  23.948233  1.712333  21.620440
C  24.598293  2.946043  21.501351
C  24.361187  3.943118  22.436712
C  24.966608  5.318407  22.306253
H  24.381284  5.965385  22.706609
H  25.086610  5.526926  21.378072
H  25.815125  5.336146  22.754484
C  22.019312  2.098578  24.791574
H  22.479802  1.493773  25.381636
H  21.214080  1.684553  24.472007
H  21.797665  2.902866  25.267932
C  24.235968  0.590079  20.612667
H  5.115256  33.250251  21.084837
H  24.984193  0.837758  20.061504
H  23.463394  0.452851  20.061504
C  22.335839  0.167351  22.709003
H  21.571574  0.235295  23.299065
H  2.705553  33.354008  21.832887
C  3.721802  31.399686  23.105170
C  4.784429  30.529797  23.319411
H  5.637004  30.867176  23.484581
C  4.576310  29.155847  23.284702
H  5.287240  28.574471  23.430721
C  3.305177  28.651787  23.036349
H  3.165464  27.731023  23.011813
C  2.241970  29.521342  22.822706
C  2.450090  30.895291  22.857416
H  1.737421  31.476333  22.712593
C  0.926199  28.986154  22.576747
C  25.669035  3.072894  20.469042
H  26.135903  3.910318  20.600100
H  26.307887  2.353956  20.588131
C  26.025177  2.548417  18.197364
C  25.424973  2.187609  16.996893
H  24.506890  2.280321  16.889772
C  26.198320  1.688904  15.955607
H  25.795801  1.446915  15.154296
C  27.572643  1.551676  16.114194
H  28.091492  1.219318  15.417610
C  28.172846  1.912484  17.314665
C  27.399500  2.411190  18.355950
H  27.801632  2.651840  19.157860
C  29.639151  1.787975  17.476243
Mn  29.402046  5.650765  28.267313
Mn  26.484895  6.471453  30.212243
Mn  23.795380  6.472792  32.366627
O  28.255939  4.080681  27.099159
O  27.030798  5.080099  28.537210
O  23.005802  1.951644  28.902258
O  1.183595  33.083570  33.816049
O  19.409799  0.679444  38.586813
O  0.302807  32.234097  39.674178
O  16.879900  2.618035  29.726909
O  12.907852  5.621981  29.462997
O  11.375459  4.334050  28.535415
O  24.593075  6.768668  29.074011
O  22.901259  6.954428  30.425886
O  22.359414  5.286275  24.774219
O  4.011276  32.696320  23.245205
O  0.026281  29.792450  22.197935
O  0.618754  27.799637  22.786800
O  25.172215  3.030387  19.151875
O  30.146406  1.976412  18.593531
O  30.339839  1.496116  16.457100
O  31.376572  5.470027  27.649723
O  31.598798  5.647418  27.823271
H  31.900252  4.757112  27.673661
H  31.803632  6.182941  27.057268
H  31.929238  6.541071  27.877131
H  32.023926  5.111896  28.493524
H  31.591068  4.556291  27.482160
H  31.467395  5.968732  26.835845
H  31.757255  6.343597  27.601848
H  31.884793  4.931157  28.248163
C  7.838008  15.328325  47.678313
C  6.809778  14.319869  47.473048
C  7.049975  13.242465  46.613090
H  7.810568  13.249828  46.078085
C  6.200299  12.189829  46.544269
H  6.374794  11.479257  45.970365
C  5.109459  12.182130  47.307280
H  4.533217  11.455828  47.268980
C  4.812256  13.252506  48.175018
C  5.670628  14.318865  48.255209
H  5.487823  15.030440  48.824924
C  3.255708  14.127081  49.778838
H  3.089714  14.960153  49.309661
H  3.941903  14.280709  50.446697
C  1.981290  13.625363  50.435326
C  0.812767  13.554741  49.692064
C  -0.281744  12.933535  50.243826
C  -0.269956  12.510138  51.569969
C  0.898759  12.630630  52.301262
C  2.085833  13.142389  51.693846
C  3.372618  13.130674  52.488574
H  4.108089  12.921821  51.906890
H  3.313873  12.469974  53.181567
H  3.514842  13.996213  52.882347
C  0.700302  14.159882  48.292313
H  1.074221  15.043828  48.292313
H  -0.222419  14.203727  48.034983
H  1.178571  13.611306  47.669935
C  -1.493938  11.904998  52.176787
H  -2.266898  12.182130  51.679483
H  -1.578964  12.195518  53.085817
H  -1.422440  10.947082  52.152251
C  -1.521958  12.693889  49.432341
H  -1.298766  12.654060  48.489798
H  -1.924864  11.850776  49.686678
C  -3.647405  13.652809  49.043953
C  -4.001421  12.569715  48.248028
H  -3.395420  11.880899  48.100812
C  -5.264051  12.515493  47.669337
H  -5.499804  11.790530  47.137323
C  -6.173052  13.544366  47.887169
H  -7.016738  13.507548  47.502372
C  -5.818843  14.627794  48.683094
C  -4.556213  14.682016  49.261785
H  -4.321040  15.405306  49.794397
C  -6.782144  15.714570  48.912297
C  0.935475  12.134603  53.736321
H  1.630752  12.600507  54.222853
H  0.084832  12.319358  54.168993
C  1.057409  10.112002  54.940981
C  1.289104  8.744077  54.889515
H  1.516741  8.346451  54.079227
C  1.185334  7.973928  56.021764
H  1.315771  7.054503  55.976282
C  0.881368  8.579403  57.247369
H  0.846198  8.068649  58.022947
C  0.633054  9.933271  57.297638
C  0.760013  10.690031  56.135467
H  0.637499  11.609791  56.179752
C  0.315174  10.606356  58.594457
C  4.091857  17.964434  49.266573
C  3.152517  17.839590  48.118167
C  1.836360  18.276375  48.214515
H  1.541862  18.698769  48.992487
C  0.960789  18.084591  47.152284
H  0.080968  18.377455  47.215121
C  1.401183  17.455687  45.993106
H  0.815280  17.326492  45.282159
C  2.717341  17.018902  45.896757
C  3.592911  17.210686  46.959587
H  4.471380  16.918157  46.897947
C  4.251087  15.730636  44.721421
H  4.345774  15.234608  45.551457
H  4.995061  16.345817  44.647813
C  4.251280  14.766361  43.534116
C  3.554650  13.583191  43.611315
C  3.734556  12.625610  42.575415
C  4.623847  12.869273  41.568839
C  5.273906  14.102982  41.449750
C  5.036801  15.100058  42.385111
C  5.642222  16.475347  42.254652
H  5.056898  17.122325  42.655008
H  5.762224  16.683866  41.326471
H  6.490738  16.493086  42.702883
C  2.694925  13.255518  44.739973
H  3.155416  12.650713  45.330035
H  1.889694  12.841492  44.420406
H  2.473279  14.059806  45.216331
C  4.911581  11.747018  40.561066
H  5.114870  10.937041  41.033235
H  5.659806  11.994698  40.009903
H  4.139008  11.609791  40.009903
C  3.011452  11.324290  42.657402
H  2.247188  11.392235  43.247463
H  2.705167  11.040798  41.781285
C  3.721416  9.086476  43.053569
C  4.784043  8.216587  43.267810
H  5.636618  8.553966  43.432980
C  4.575923  6.842637  43.233101
H  5.286853  6.261261  43.379120
C  3.304790  6.338577  42.984748
H  3.165078  5.417813  42.960212
C  2.241584  7.208131  42.771105
C  2.449703  8.582081  42.805815
H  1.737034  9.163123  42.660992
C  0.925813  6.672944  42.525146
C  6.344649  14.229834  40.417441
H  6.811517  15.067257  40.548499
H  6.983500  13.510895  40.536530
C  6.700790  13.705357  38.145762
C  6.100587  13.344549  36.945292
H  5.182504  13.437261  36.838171
C  6.873933  12.845843  35.904006
H  6.471414  12.603854  35.102695
C  8.248256  12.708616  36.062593
H  8.767106  12.376257  35.366009
C  8.848460  13.069424  37.263063
C  8.075113  13.568129  38.304349
H  8.477246  13.808780  39.106259
C  10.314765  12.944915  37.424642
Mn  10.078239  16.807370  48.215712
Mn  7.160895  17.628393  50.160044
Mn  4.471574  17.629397  52.314428
O  8.931553  15.237620  47.047557
O  7.706411  16.237039  48.485609
O  3.681415  13.108584  48.850657
O  1.183209  10.770360  53.764448
O  0.085412  11.836384  58.535212
O  0.302421  9.920887  59.622577
O  -2.444486  13.774975  49.675308
O  -6.416534  16.778921  49.411395
O  -7.948927  15.490989  48.483813
O  5.268689  17.925608  49.022409
O  3.576872  18.111367  50.374285
O  3.035027  16.443215  44.722618
O  4.010889  10.383110  43.193604
O  0.025894  7.479240  42.146334
O  0.618368  5.486427  42.735199
O  5.847829  14.187327  39.100274
O  10.822020  13.133352  38.541930
O  11.015453  12.653055  36.405499
O  12.052186  16.626966  47.598122
O  12.274412  16.804358  47.771670
H  12.575866  15.914052  47.622060
H  12.479246  17.339881  47.005667
H  12.604852  17.698011  47.825529
H  12.699540  16.268836  48.441923
H  12.266682  15.713231  47.430559
H  12.143008  17.125672  46.784244
H  12.432868  17.500537  47.550247
H  12.560407  16.088097  48.196562
C  9.355521  30.174679  7.782114
C  8.996288  31.569380  7.576849
C  7.943130  31.900065  6.716891
H  7.569211  31.237691  6.181885
C  7.456359  33.162224  6.648070
H  6.753738  33.366392  6.074166
C  27.319112  0.640619  7.411081
H  26.978236  1.502810  7.372781
C  28.394686  0.362816  8.278819
C  9.564994  32.556415  8.359010
H  10.272638  32.358941  8.928725
C  29.930364  1.273539  9.882638
H  30.734822  1.000757  9.413461
H  29.720312  0.602463  10.550497
C  30.133073  2.628076  10.539127
C  30.656173  3.675357  9.795864
C  30.665449  4.933835  10.347626
C  30.292882  5.135325  11.673769
C  29.812874  4.062941  12.405063
C  29.662533  2.779027  11.797646
C  29.008996  1.670495  12.592374
H  28.460387  1.137985  12.010691
H  28.466184  2.051720  13.285368
H  29.687461  1.114556  12.986148
C  31.236473  3.470185  8.396113
H  31.815034  2.704388  8.396113
H  31.735805  4.247362  8.138784
H  30.522258  3.330280  7.773736
C  30.380806  6.497895  12.280587
H  31.007290  7.028731  11.783284
H  30.674918  6.426269  13.189618
H  29.515478  6.914933  12.256051
C  31.078016  6.127715  9.536141
H  30.931927  5.954340  8.593598
H  30.549312  6.898198  9.790478
C  32.971189  7.488946  9.147754
C  32.210209  8.337080  8.351829
H  31.310677  8.156676  8.204612
C  32.794567  9.457660  7.773137
H  32.284607  10.024310  7.241124
C  -4.507903  9.730442  7.990969
H  -4.117944  10.479504  7.606172
C  -3.746730  8.881974  8.786895
C  -4.331088  7.761393  9.365586
H  -3.822287  7.196082  9.898198
C  -2.323904  9.172829  9.016097
C  29.364944  4.279159  13.840122
H  29.420790  3.444078  14.326654
H  29.950268  4.923459  14.272794
C  27.552352  5.184861  15.044782
C  26.251847  5.668170  14.993316
H  25.793675  5.669843  14.183028
C  25.636764  6.143111  16.125564
H  24.775300  6.489862  16.080083
C  26.313104  6.103617  17.351169
H  25.888363  6.389452  18.126748
C  27.609745  5.641728  17.401438
C  28.201639  5.153399  16.239268
H  29.059431  4.799619  16.283552
C  28.351593  5.580478  18.698258
C  13.511534  32.100886  9.370374
C  13.873086  32.976800  8.221967
C  34.233432  0.428083  8.318316
H  34.746484  0.471929  9.096288
C  34.505128  1.282241  7.256085
H  35.198666  1.897757  7.318921
C  33.740284  1.215301  6.096907
H  33.921350  1.787306  5.385960
C  32.703938  0.293868  6.000558
C  13.108242  32.909859  7.063387
H  12.415670  32.295348  7.001748
C  11.497394  33.079888  4.825222
H  11.020477  33.245900  5.655258
H  11.658169  32.127997  4.751614
C  29.986210  0.091708  3.637917
C  29.309870  1.286593  3.715116
C  28.390628  1.609580  2.679216
C  28.157000  0.717600  1.672640
C  9.576395  33.007927  1.553550
C  10.558440  32.714729  2.488912
C  11.446765  31.502774  2.358452
H  12.299726  31.686191  2.758808
H  11.567346  31.294590  1.430272
H  11.037869  30.759068  2.806684
C  29.455960  2.194972  4.843773
H  28.701937  2.098578  5.433835
H  29.500018  3.099336  4.524206
H  30.263316  1.984780  5.320132
C  27.041233  1.029542  0.664867
H  26.238127  1.258478  1.137036
H  26.881616  0.257720  0.113704
H  27.308677  1.767224  0.113704
C  27.625204  2.886466  2.761202
H  28.066178  3.514366  3.351264
H  27.532835  3.293463  1.885086
C  25.332218  3.390526  3.157369
C  24.047559  2.905209  3.371611
H  23.913450  1.998168  3.536780
C  22.961743  3.772421  3.336901
H  22.102791  3.447425  3.482921
C  23.160780  5.125284  3.088549
H  22.433232  5.706661  3.064013
C  24.445440  5.611271  2.874906
C  25.531255  4.744059  2.909615
H  26.390787  5.070728  2.764793
C  24.639839  7.018356  2.628947
C  9.150880  32.017211  0.521241
H  9.642676  31.194180  0.652300
H  8.208835  31.823418  0.640331
C  8.518599  31.971022  58.093563
C  8.506232  32.671217  56.893092
H  9.045564  33.419945  56.785972
C  7.687667  32.250832  55.851807
H  7.679358  32.720418  55.050496
C  6.881663  31.129248  56.010393
H  6.334407  30.846090  55.313809
C  6.894030  30.429052  57.210864
C  7.712595  30.849437  58.252150
H  7.719938  30.380855  59.054059
C  6.053050  29.221449  57.372443
Mn  9.516490  27.495393  8.319513
Mn  11.686189  29.611376  10.264443
Mn  13.031912  31.939560  12.418827
O  8.730197  29.272993  7.151358
O  10.208289  29.834287  8.589409
O  28.835466  1.414114  8.954458
O  28.059607  4.746737  13.868249
O  29.531710  5.164444  18.639012
O  27.764337  5.934258  19.726378
O  32.475528  6.386105  9.779108
O  -1.584954  8.324026  9.515196
O  -1.934139  10.295083  8.587614
O  12.889494  31.101133  9.126210
O  13.896275  32.473409  10.478086
O  32.046535  0.306587  4.826419
O  26.310399  2.491518  3.297404
O  25.788071  7.394560  2.250134
O  23.766008  7.877869  2.838999
O  9.362478  32.468723  59.048075
O  5.962613  28.687935  58.489730
O  5.449948  28.760565  56.353299
O  8.373089  25.875773  7.701923
O  8.415602  25.594624  7.875470
H  7.493847  25.778709  7.725860
H  8.776961  25.149471  7.109467
H  9.024308  24.861627  7.929330
H  7.739262  25.494213  8.545723
H  7.474523  26.146881  7.534360
H  8.759569  25.547765  6.888044
H  8.939282  25.109306  7.654048
H  7.652304  25.705075  8.300363
C  9.355715  7.861134  27.729914
C  8.996481  9.255835  27.524649
C  7.943323  9.586520  26.664691
H  7.569404  8.924146  26.129686
C  7.456552  10.848680  26.595870
H  6.753931  11.052848  26.021967
C  7.995305  11.797224  27.358881
H  7.654430  12.659415  27.320581
C  9.070879  11.519421  28.226619
C  9.565187  10.242870  28.306810
H  10.272832  10.045396  28.876525
C  10.606557  12.430144  29.830439
H  11.411015  12.157363  29.361262
H  10.396505  11.759068  30.498298
C  10.809266  13.784681  30.486927
C  11.332367  14.831962  29.743665
C  11.341642  16.090440  30.295427
C  10.969075  16.291930  31.621570
C  10.489067  15.219547  32.352863
C  10.338726  13.935632  31.745447
C  9.685189  12.827100  32.540175
H  9.136580  12.294590  31.958491
H  9.142378  13.208325  33.233169
H  10.363654  12.271161  32.933949
C  11.912666  14.626790  28.343914
H  12.491227  13.860993  28.343914
H  12.411998  15.403967  28.086585
H  11.198451  14.486885  27.721536
C  11.057000  17.654500  32.228388
H  11.683484  18.185336  31.731084
H  11.351111  17.582874  33.137418
H  10.191671  18.071538  32.203852
C  11.754209  17.284320  29.483942
H  11.608120  17.110945  28.541399
H  11.225505  18.054803  29.738279
C  13.647382  18.645551  29.095554
C  12.886403  19.493685  28.299629
H  11.986870  19.313281  28.152413
C  13.470760  20.614265  27.720938
H  12.960800  21.180915  27.188925
C  14.816291  20.887047  27.938770
H  15.206249  21.636109  27.553973
C  15.577463  20.038579  28.734695
C  14.993105  18.917998  29.313387
H  15.501906  18.352687  29.845998
C  17.000289  20.329434  28.963898
C  10.041137  15.435764  33.787922
H  10.096983  14.600683  34.274454
H  10.626461  16.080064  34.220595
C  8.228546  16.341466  34.992582
C  6.928040  16.824775  34.941116
H  6.469868  16.826448  34.130829
C  6.312958  17.299716  36.073365
H  5.451494  17.646467  36.027883
C  6.989298  17.260222  37.298970
H  6.564556  17.546057  38.074548
C  8.285938  16.798333  37.349239
C  8.877832  16.310004  36.187068
H  9.735624  15.956225  36.231353
C  9.027786  16.737083  38.646058
C  13.511727  9.787341  29.318174
C  13.873279  10.663255  28.169768
C  14.909625  11.584688  28.266117
H  15.422678  11.628534  29.044089
C  15.181321  12.438846  27.203886
H  15.874859  13.054363  27.266722
C  14.416477  12.371906  26.044707
H  14.597543  12.943911  25.333761
C  13.380131  11.450473  25.948358
C  13.108435  10.596315  27.011188
H  12.415863  9.981803  26.949549
C  11.497587  10.766343  24.773022
H  11.020670  10.932355  25.603059
H  11.658362  9.814452  24.699414
C  10.662403  11.248313  23.585717
C  9.986063  12.443198  23.662916
C  9.066821  12.766185  22.627016
C  8.833194  11.874205  21.620440
C  9.576588  10.694382  21.501351
C  10.558634  10.401184  22.436712
C  11.446958  9.189230  22.306253
H  12.299919  9.372646  22.706609
H  11.567540  8.981045  21.378072
H  11.038062  8.445523  22.754484
C  10.132153  13.351577  24.791574
H  9.378130  13.255183  25.381636
H  10.176212  14.255941  24.472007
H  10.939510  13.141385  25.267932
C  7.717426  12.186147  20.612667
H  6.914320  12.415083  21.084837
H  7.557810  11.414325  20.061504
H  7.984870  12.923829  20.061504
C  8.301397  14.043071  22.709003
H  8.742371  14.670971  23.299065
H  8.209028  14.450068  21.832887
C  6.008411  14.547131  23.105170
C  4.723752  14.061814  23.319411
H  4.589643  13.154773  23.484581
C  3.637936  14.929026  23.284702
H  2.778984  14.604030  23.430721
C  3.836973  16.281889  23.036349
H  3.109425  16.863266  23.011813
C  5.121633  16.767876  22.822706
C  6.207449  15.900664  22.857416
H  7.066980  16.227333  22.712593
C  5.316032  18.174961  22.576747
C  9.151073  9.703666  20.469042
H  9.642869  8.880635  20.600100
H  8.209028  9.509874  20.588131
C  8.518792  9.657477  18.197364
C  8.506425  10.357673  16.996893
H  9.045758  11.106400  16.889772
C  7.687860  9.937287  15.955607
H  7.679551  10.406874  15.154296
C  6.881856  8.815703  16.114194
H  6.334600  8.532545  15.417610
C  6.894223  8.115507  17.314665
C  7.712788  8.535892  18.355950
H  7.720131  8.067310  19.157860
C  6.053243  6.907904  17.476243
Mn  9.516684  5.181849  28.267313
Mn  11.685996  7.297831  30.212243
Mn  13.031912  9.626350  32.366627
O  8.730390  6.959448  27.099159
O  10.208483  7.520743  28.537210
O  9.511659  12.570719  28.902258
O  8.735801  15.903342  33.816049
O  10.207903  16.321049  38.586813
O  8.440530  17.090863  39.674178
O  13.151721  17.542710  29.726909
O  17.739239  19.480631  29.462997
O  17.390054  21.451688  28.535415
O  12.889688  8.787588  29.074011
O  13.896468  10.159864  30.425886
O  12.722728  11.463192  24.774219
O  6.986592  13.648123  23.245205
O  6.464264  18.551165  22.197935
O  4.442201  19.034474  22.786800
O  9.362671  10.155178  19.151875
O  5.962807  6.374390  18.593531
O  5.450141  6.447020  16.457100
O  8.373282  3.562228  27.649723
O  8.415795  3.281079  27.823271
H  7.494040  3.465165  27.673661
H  8.777154  2.835926  27.057268
H  9.024501  2.548083  27.877131
H  7.739455  3.180668  28.493524
H  7.474716  3.833336  27.482160
H  8.759762  3.234221  26.835845
H  8.939476  2.795762  27.601848
H  7.652497  3.391530  28.248163
C  -9.968672  19.018074  47.678313
C  -10.327905  20.412775  47.473048
C  -11.381063  20.743460  46.613090
H  26.893018  20.081086  46.078085
C  -11.867835  22.005619  46.544269
H  -12.570455  22.209787  45.970365
C  -11.329081  22.954163  47.307280
H  -11.669957  23.816354  47.268980
C  -10.253508  22.676361  48.175018
C  -9.759200  21.399810  48.255209
H  -9.051555  21.202336  48.824924
C  -8.717829  23.587084  49.778838
H  -7.913371  23.314302  49.309661
H  -8.927881  22.916007  50.446697
C  -8.515121  24.941621  50.435326
C  -7.992020  25.988902  49.692064
C  -7.982744  27.247380  50.243826
C  -8.355311  27.448870  51.569969
C  -8.835319  26.376486  52.301262
C  -8.985660  25.092571  51.693846
C  -9.639198  23.984040  52.488574
H  -10.187806  23.451530  51.906890
H  -10.182009  24.365265  53.181567
H  -8.960732  23.428101  52.882347
C  -7.411720  25.783730  48.292313
H  -6.833160  25.017933  48.292313
H  -6.912388  26.560907  48.034983
H  -8.125935  25.643825  47.669935
C  -8.267387  28.811440  52.176787
H  -7.640903  29.342276  51.679483
H  -7.973276  28.739814  53.085817
H  -9.132716  29.228478  52.152251
C  -7.570177  28.441260  49.432341
H  -7.716266  28.267884  48.489798
H  -8.098882  29.211743  49.686678
C  -5.677005  29.802491  49.043953
C  -6.437984  30.650624  48.248028
H  -7.337516  30.470220  48.100812
C  -5.853626  31.771205  47.669337
H  -6.363586  32.337855  47.137323
C  -4.508096  32.043987  47.887169
H  -4.118138  32.793049  47.502372
C  -3.746924  31.195518  48.683094
C  -4.331281  30.074938  49.261785
H  -3.822480  29.509627  49.794397
C  -2.324097  31.486374  48.912297
C  -9.283250  26.592703  53.736321
H  -9.227403  25.757623  54.222853
H  -8.697926  27.237004  54.168993
C  -11.095841  27.498406  54.940981
C  -12.396346  27.981715  54.889515
H  -12.854518  27.983388  54.079227
C  -13.011429  28.456656  56.021764
H  -13.872893  28.803407  55.976282
C  -12.335089  28.417161  57.247369
H  -12.759830  28.702996  58.022947
C  -11.038449  27.955273  57.297638
C  -10.446554  27.466944  56.135467
H  -9.588762  27.113164  56.179752
C  -10.296600  27.894023  58.594457
C  -5.812659  20.944281  49.266573
C  -5.451107  21.820195  48.118167
C  -4.414761  22.741628  48.214515
H  -3.901709  22.785474  48.992487
C  -4.143066  23.595786  47.152284
H  -3.449527  24.211302  47.215121
C  -4.907910  23.528846  45.993106
H  -4.726844  24.100851  45.282159
C  -5.944256  22.607413  45.896757
C  -6.215951  21.753254  46.959587
H  -6.908523  21.138743  46.897947
C  -7.826800  21.923283  44.721421
H  -8.303716  22.089295  45.551457
H  -7.666024  20.971392  44.647813
C  -8.661983  22.405253  43.534116
C  -9.338323  23.600137  43.611315
C  -10.257566  23.923124  42.575415
C  -10.491193  23.031145  41.568839
C  -9.747799  21.851322  41.449750
C  -8.765753  21.558123  42.385111
C  -7.877429  20.346169  42.254652
H  -7.024467  20.529586  42.655008
H  -7.756847  20.137985  41.326471
H  -8.286324  19.602463  42.702883
C  -9.192234  24.508517  44.739973
H  -9.946256  24.412123  45.330035
H  -9.148175  25.412881  44.420406
H  -8.384877  24.298325  45.216331
C  -11.606961  23.343087  40.561066
H  -12.410066  23.572022  41.033235
H  -11.766577  22.571265  40.009903
H  -11.339516  24.080769  40.009903
C  -11.022989  25.200010  42.657402
H  -10.582016  25.827911  43.247463
H  -11.115358  25.607008  41.781285
C  -13.315975  25.704071  43.053569
C  24.047365  25.218754  43.267810
H  23.913257  24.311713  43.432980
C  22.961550  26.085965  43.233101
H  22.102598  25.760970  43.379120
C  -15.487413  27.438829  42.984748
H  22.433038  28.020205  42.960212
C  -14.202754  27.924815  42.771105
C  -13.116938  27.057604  42.805815
H  -12.257406  27.384272  42.660992
C  -14.008354  29.331900  42.525146
C  -10.173313  20.860606  40.417441
H  -9.681517  20.037575  40.548499
H  -11.115358  20.666813  40.536530
C  -10.805594  20.814417  38.145762
C  -10.817962  21.514612  36.945292
H  -10.278629  22.263340  36.838171
C  -11.636526  21.094227  35.904006
H  -11.644836  21.563813  35.102695
C  26.205470  19.972642  36.062593
H  25.658214  19.689485  35.366009
C  26.217837  19.272447  37.263063
C  27.036402  19.692832  38.304349
H  27.043745  19.224250  39.106259
C  25.376857  18.064844  37.424642
Mn  28.840877  16.338454  48.215712
Mn  -7.637811  18.454436  50.160044
Mn  -6.292281  20.782955  52.314428
O  28.054003  18.116388  47.047557
O  -9.115904  18.677682  48.485609
O  -9.812727  23.727659  48.850657
O  -10.588586  27.060281  53.764448
O  -9.116483  27.477989  58.535212
O  -10.883857  28.247802  59.622577
O  -6.172665  28.699649  49.675308
O  -1.585148  30.637571  49.411395
O  -1.934332  32.608628  48.483813
O  -6.434699  19.944528  49.022409
O  -5.427918  21.316804  50.374285
O  -6.601658  22.620131  44.722618
O  -12.337794  24.805063  43.193604
O  -12.860122  29.708105  42.146334
O  -14.882185  30.191414  42.735199
O  -9.961715  21.312118  39.100274
O  25.286420  17.531330  38.541930
O  24.773754  17.603960  36.405499
O  27.696896  14.719168  47.598122
O  27.739409  14.438019  47.771670
H  26.817654  14.622104  47.622060
H  28.100768  13.992866  47.005667
H  28.348115  13.705022  47.825529
H  27.063069  14.337608  48.441923
H  26.798330  14.990276  47.430559
H  28.083376  14.391160  46.784244
H  28.263089  13.952701  47.550247
H  26.976111  14.548470  48.196562
C  11.485799  26.484930  37.704114
C  12.514029  25.476474  37.498849
C  12.273832  24.399070  36.638891
H  11.513239  24.406433  36.103885
C  13.123508  23.346434  36.570070
H  12.949012  22.635862  35.996166
C  14.214348  23.338735  37.333081
H  14.790590  22.612433  37.294781
C  14.511551  24.409111  38.200819
C  13.653179  25.475470  38.281010
H  13.835984  26.187045  38.850725
C  16.068099  25.283686  39.804638
H  16.234092  26.116758  39.335461
H  15.381904  25.437314  40.472497
C  17.342517  24.781968  40.461127
C  18.511039  24.711346  39.717864
C  19.605551  24.090140  40.269626
C  19.593763  23.666743  41.595769
C  18.425048  23.787235  42.327063
C  17.237974  24.298994  41.719646
C  15.951189  24.287280  42.514374
H  15.215718  24.078426  41.932691
H  16.009934  23.626579  43.207368
H  15.808964  25.152818  42.908148
C  18.623505  25.316487  38.318113
H  18.249586  26.200433  38.318113
H  19.546226  25.360333  38.060784
H  18.145236  24.767911  37.695736
C  20.817745  23.061603  42.202587
H  21.590705  23.338735  41.705284
H  20.902771  23.352124  43.111618
H  20.746246  22.103687  42.178051
C  20.845765  23.850494  39.458141
H  20.622573  23.810665  38.515598
H  21.248670  23.007381  39.712478
C  22.971212  24.809414  39.069754
C  23.325227  23.726320  38.273829
H  22.719227  23.037504  38.126612
C  24.587858  23.672098  37.695137
H  24.823610  22.947135  37.163124
C  -13.151141  24.700971  37.912969
H  -12.307456  24.664153  37.528172
C  -13.505350  25.784399  38.708895
C  -14.767981  25.838621  39.287586
H  -15.003154  26.561911  39.820198
C  -12.542049  26.871175  38.938097
C  18.388332  23.291208  43.762122
H  17.693054  23.757112  44.248654
H  19.238974  23.475963  44.194794
C  18.266397  21.268607  44.966782
C  18.034703  19.900682  44.915316
H  17.807066  19.503056  44.105028
C  18.138473  19.130534  46.047564
H  18.008036  18.211109  46.002083
C  18.442439  19.736009  47.273169
H  18.477609  19.225254  48.048748
C  18.690753  21.089876  47.323438
C  18.563794  21.846636  46.161268
H  18.686308  22.766396  46.205552
C  19.008632  21.762961  48.620258
C  15.231950  29.121039  39.292374
C  16.171289  28.996195  38.143967
C  17.487447  29.432980  38.240316
H  17.781945  29.855374  39.018288
C  18.363017  29.241196  37.178085
H  19.242839  29.534060  37.240921
C  17.922624  28.612292  36.018907
H  18.508527  28.483097  35.307960
C  16.606466  28.175507  35.922558
C  15.730895  28.367291  36.985387
H  14.852426  28.074762  36.923748
C  15.072720  26.887241  34.747222
H  14.978032  26.391213  35.577258
H  14.328746  27.502422  34.673614
C  15.072527  25.922966  33.559917
C  15.769157  24.739796  33.637116
C  15.589251  23.782215  32.601216
C  14.699960  24.025878  31.594640
C  14.049901  25.259587  31.475550
C  14.287006  26.256663  32.410912
C  13.681585  27.631952  32.280452
H  14.266909  28.278930  32.680808
H  13.561583  27.840471  31.352272
H  12.833068  27.649691  32.728684
C  16.628882  24.412123  34.765773
H  16.168391  23.807318  35.355835
H  17.434113  23.998097  34.446206
H  16.850528  25.216411  35.242132
C  14.412226  22.903624  30.586867
H  14.208937  22.093646  31.059036
H  13.664000  23.151303  30.035704
H  15.184799  22.766396  30.035704
C  16.312355  22.480896  32.683202
H  17.076619  22.548840  33.273264
H  16.618640  22.197403  31.807086
C  15.602391  20.243081  33.079369
C  14.539764  19.373192  33.293611
H  13.687189  19.710571  33.458780
C  14.747884  17.999242  33.258901
H  14.036954  17.417866  33.404921
C  16.019016  17.495182  33.010549
H  16.158729  16.574418  32.986013
C  17.082223  18.364736  32.796906
C  16.874103  19.738686  32.831615
H  17.586772  20.319728  32.686793
C  18.397994  17.829549  32.550947
C  12.979158  25.386439  30.443241
H  12.512290  26.223862  30.574300
H  12.340306  24.667500  30.562331
C  12.623017  24.861962  28.171563
C  13.223220  24.501154  26.971092
H  14.141303  24.593866  26.863972
C  12.449873  24.002449  25.929807
H  12.852392  23.760459  25.128496
C  11.075551  23.865221  26.088393
H  10.556701  23.532862  25.391809
C  10.475347  24.226029  27.288864
C  11.248694  24.724734  28.330150
H  10.846561  24.965385  29.132059
C  9.009042  24.101520  27.450443
Mn  9.245761  27.964310  38.241513
Mn  12.163299  28.784998  40.186443
Mn  14.852426  28.786337  42.340827
O  10.392254  26.394225  37.073358
O  11.617396  27.393644  38.511409
O  15.642392  24.265189  38.876458
O  18.140598  21.926965  43.790249
O  19.238395  22.992989  48.561012
O  19.021386  21.077492  49.648378
O  21.768293  24.931580  39.701108
O  -12.907659  27.935526  39.437196
O  -11.375266  26.647594  38.509614
O  14.055118  29.082213  39.048210
O  15.746934  29.267972  40.400086
O  16.288779  27.599820  34.748419
O  15.312917  21.539715  33.219404
O  19.297913  18.635845  32.172134
O  18.705439  16.643032  32.760999
O  13.475978  25.343932  29.126075
O  8.501787  24.289957  28.567730
O  8.308354  23.809660  26.431299
O  7.271621  27.783571  37.623923
O  7.049395  27.960963  37.797470
H  6.747941  27.070657  37.647860
H  6.844561  28.496486  37.031467
H  6.718955  28.854616  37.851330
H  6.624267  27.425441  38.467723
H  7.057125  26.869836  37.456360
H  7.180798  28.282277  36.810044
H  6.890938  28.657142  37.576048
H  6.763400  27.244702  38.222363
C  11.485992  4.171385  57.651914
C  12.514222  3.162929  57.446649
C  12.274025  2.085525  56.586691
H  11.513432  2.092888  56.051686
C  13.123701  1.032889  56.517870
H  12.949206  0.322318  55.943967
C  14.214541  1.025191  57.280881
H  14.790783  0.298888  57.242581
C  14.511744  2.095566  58.148619
C  13.653372  3.161925  58.228810
H  13.836177  3.873500  58.798525
C  16.068292  2.970141  59.752439
H  16.234286  3.803213  59.283262
H  15.382097  3.123769  0.576298
C  17.342710  2.468424  0.564927
C  18.511233  2.397802  59.665665
C  19.605744  1.776596  0.373427
C  19.593956  1.353198  1.699570
C  18.425241  1.473691  2.430863
C  17.238167  1.985449  1.823447
C  15.951382  1.973735  2.618175
H  15.215911  1.764881  2.036491
H  16.010127  1.313034  3.311169
H  15.809158  2.839273  3.011949
C  18.623698  3.002942  58.265914
H  18.249779  3.886888  58.265914
H  19.546419  3.046788  58.008585
H  18.145429  2.454366  57.643536
C  20.817938  0.748058  2.306388
H  21.590898  1.025191  1.809084
H  20.902964  1.038579  3.215418
H  1.422440  33.260292  2.281852
C  20.845958  1.536949  59.405942
H  20.622766  1.497120  58.463399
H  21.248864  0.693836  59.660279
C  22.971405  2.495869  59.017554
C  23.325421  1.412775  58.221629
H  22.719420  0.723959  58.074413
C  24.588051  1.358553  57.642938
H  24.823804  0.633590  57.110925
C  25.497052  2.387426  57.860770
H  26.340738  2.350609  57.475973
C  25.142843  3.470855  58.656695
C  23.880213  3.525076  59.235387
H  23.645040  4.248366  59.767998
C  26.106144  4.557630  58.885898
C  18.388525  0.977663  3.865922
H  17.693248  1.443568  4.352454
H  19.239168  1.162418  4.298595
C  -1.057409  32.425212  5.070582
C  -1.289104  31.057287  5.019116
H  -1.516741  30.659661  4.208829
C  -1.185334  30.287139  6.151365
H  -1.315771  29.367714  6.105883
C  -0.881368  30.892614  7.376970
H  -0.846198  30.381859  8.152548
C  -0.633054  32.246481  7.427239
C  -0.760013  33.003241  6.265068
H  18.686501  0.452851  6.309353
C  -0.315174  32.919566  8.724058
C  15.232143  6.807494  59.240174
C  16.171483  6.682650  58.091768
C  17.487640  7.119436  58.188117
H  17.782138  7.541829  58.966089
C  18.363211  6.927652  57.125886
H  19.243032  7.220515  57.188722
C  17.922817  6.298747  55.966707
H  18.508720  6.169553  55.255761
C  16.606659  5.861962  55.870358
C  15.731089  6.053746  56.933188
H  14.852620  5.761217  56.871549
C  15.072913  4.573696  54.695022
H  14.978226  4.077668  55.525059
H  14.328939  5.188877  54.621414
C  15.072720  3.609421  53.507717
C  15.769350  2.426251  53.584916
C  15.589444  1.468670  52.549016
C  14.700153  1.712333  51.542440
C  14.050094  2.946043  51.423351
C  14.287199  3.943118  52.358712
C  13.681778  5.318407  52.228253
H  14.267102  5.965385  52.628609
H  13.561776  5.526926  51.300072
H  12.833262  5.336146  52.676484
C  16.629075  2.098578  54.713574
H  16.168584  1.493773  55.303636
H  17.434306  1.684553  54.394007
H  16.850721  2.902866  55.189932
C  14.412419  0.590079  50.534667
H  -5.114870  33.250251  51.006837
H  13.664194  0.837758  49.983504
H  15.184992  0.452851  49.983504
C  16.312548  0.167351  52.631003
H  17.076812  0.235295  53.221065
H  -2.705167  33.354008  51.754887
C  -3.721416  31.399686  53.027170
C  -4.784043  30.529797  53.241411
H  -5.636618  30.867176  53.406581
C  -4.575923  29.155847  53.206702
H  -5.286853  28.574471  53.352721
C  -3.304790  28.651787  52.958349
H  -3.165078  27.731023  52.933813
C  -2.241584  29.521342  52.744706
C  -2.449703  30.895291  52.779416
H  -1.737034  31.476333  52.634593
C  -0.925813  28.986154  52.498747
C  12.979351  3.072894  50.391042
H  12.512483  3.910318  50.522100
H  12.340500  2.353956  50.510131
C  12.623210  2.548417  48.119364
C  13.223413  2.187609  46.918893
H  14.141496  2.280321  46.811772
C  12.450067  1.688904  45.877607
H  12.852586  1.446915  45.076296
C  11.075744  1.551676  46.036194
H  10.556894  1.219318  45.339610
C  10.475540  1.912484  47.236665
C  11.248887  2.411190  48.277950
H  10.846754  2.651840  49.079860
C  9.009235  1.787975  47.398243
Mn  9.245954  5.650765  58.189313
Mn  12.163105  6.471453  0.290243
Mn  14.852620  6.472792  2.444627
O  10.392447  4.080681  57.021159
O  11.617589  5.080099  58.459210
O  15.642585  1.951644  58.824258
O  -1.183209  33.083570  3.894049
O  19.238588  0.679444  8.664813
O  -0.302421  32.234097  9.752178
O  21.768486  2.618035  59.648909
O  25.740534  5.621981  59.384997
O  27.272927  4.334050  58.457415
O  14.055311  6.768668  58.996011
O  15.747128  6.954428  0.503886
O  16.288973  5.286275  54.696219
O  -4.010889  32.696320  53.167205
O  -0.025894  29.792450  52.119935
O  -0.618368  27.799637  52.708800
O  13.476171  3.030387  49.073875
O  8.501980  1.976412  48.515531
O  8.308547  1.496116  46.379100
O  7.271814  5.470027  57.571723
O  7.049588  5.647418  57.745271
H  6.748134  4.757112  57.595661
H  6.844754  6.182941  56.979268
H  6.719148  6.541071  57.799131
H  6.624460  5.111896  58.415524
H  7.057318  4.556291  57.404160
H  7.180992  5.968732  56.757845
H  6.891132  6.343597  57.523848
H  6.763593  4.931157  58.170163
C  -7.838394  15.328325  17.756313
C  -6.810164  14.319869  17.551048
C  -7.050361  13.242465  16.691090
H  30.837046  13.249828  16.156085
C  -6.200685  12.189829  16.622269
H  -6.375181  11.479257  16.048365
C  -5.109845  12.182130  17.385280
H  -4.533604  11.455828  17.346980
C  -4.812642  13.252506  18.253018
C  -5.671014  14.318865  18.333209
H  -5.488209  15.030440  18.902924
C  -3.256094  14.127081  19.856838
H  -3.090101  14.960153  19.387661
H  -3.942289  14.280709  20.524697
C  -1.981676  13.625363  20.513326
C  -0.813154  13.554741  19.770064
C  0.281357  12.933535  20.321826
C  0.269570  12.510138  21.647969
C  -0.899146  12.630630  22.379262
C  -2.086219  13.142389  21.771846
C  -3.373004  13.130674  22.566574
H  -4.108476  12.921821  21.984890
H  -3.314259  12.469974  23.259567
H  -3.515229  13.996213  22.960347
C  -0.700688  14.159882  18.370313
H  -1.074608  15.043828  18.370313
H  0.222033  14.203727  18.112983
H  -1.178957  13.611306  17.747935
C  1.493552  11.904998  22.254787
H  2.266512  12.182130  21.757483
H  1.578578  12.195518  23.163817
H  1.422053  10.947082  22.230251
C  1.521572  12.693889  19.510341
H  1.298380  12.654060  18.567798
H  1.924477  11.850776  19.764678
C  3.647019  13.652809  19.121953
C  4.001034  12.569715  18.326028
H  3.395034  11.880899  18.178812
C  5.263664  12.515493  17.747337
H  5.499417  11.790530  17.215323
C  6.172665  13.544366  17.965169
H  7.016351  13.507548  17.580372
C  5.818456  14.627794  18.761094
C  4.555826  14.682016  19.339785
H  4.320653  15.405306  19.872397
C  6.781758  15.714570  18.990297
C  -0.935861  12.134603  23.814321
H  -1.631139  12.600507  24.300853
H  -0.085219  12.319358  24.246993
C  -1.057796  10.112002  25.018981
C  -1.289491  8.744077  24.967515
H  -1.517127  8.346451  24.157227
C  -1.185721  7.973928  26.099764
H  -1.316158  7.054503  26.054282
C  -0.881754  8.579403  27.325369
H  -0.846584  8.068649  28.100947
C  -0.633441  9.933271  27.375638
C  -0.760399  10.690031  26.213467
H  -0.637885  11.609791  26.257752
C  -0.315561  10.606356  28.672457
C  -4.092243  17.964434  19.344573
C  -3.152904  17.839590  18.196167
C  -1.836746  18.276375  18.292515
H  -1.542248  18.698769  19.070487
C  -0.961176  18.084591  17.230284
H  -0.081354  18.377455  17.293121
C  -1.401570  17.455687  16.071106
H  -0.815666  17.326492  15.360159
C  -2.717727  17.018902  15.974757
C  -3.593298  17.210686  17.037587
H  -4.471767  16.918157  16.975947
C  -4.251473  15.730636  14.799421
H  -4.346161  15.234608  15.629457
H  -4.995447  16.345817  14.725813
C  -4.251666  14.766361  13.612116
C  -3.555036  13.583191  13.689315
C  -3.734943  12.625610  12.653415
C  -4.624233  12.869273  11.646839
C  -5.274293  14.102982  11.527750
C  -5.037187  15.100058  12.463111
C  -5.642608  16.475347  12.332652
H  -5.057284  17.122325  12.733008
H  -5.762610  16.683866  11.404471
H  -6.491125  16.493086  12.780883
C  -2.695312  13.255518  14.817973
H  -3.155802  12.650713  15.408035
H  -1.890080  12.841492  14.498406
H  -2.473665  14.059806  15.294331
C  -4.911968  11.747018  10.639066
H  -5.115256  10.937041  11.111235
H  -5.660193  11.994698  10.087903
H  -4.139394  11.609791  10.087903
C  -3.011839  11.324290  12.735402
H  -2.247574  11.392235  13.325463
H  -2.705553  11.040798  11.859285
C  -3.721802  9.086476  13.131569
C  33.863571  8.216587  13.345810
H  33.010996  8.553966  13.510980
C  34.071690  6.842637  13.311101
H  33.360760  6.261261  13.457120
C  -3.305177  6.338577  13.062748
H  35.482536  5.417813  13.038212
C  -2.241970  7.208131  12.849105
C  -2.450090  8.582081  12.883815
H  -1.737421  9.163123  12.738992
C  -0.926199  6.672944  12.603146
C  -6.345035  14.229834  10.495441
H  -6.811903  15.067257  10.626499
H  -6.983887  13.510895  10.614530
C  -6.701177  13.705357  8.223762
C  -6.100973  13.344549  7.023292
H  -5.182890  13.437261  6.916171
C  -6.874320  12.845843  5.982006
H  -6.471801  12.603854  5.180695
C  30.399357  12.708616  6.140593
H  29.880508  12.376257  5.444009
C  29.799154  13.069424  7.341063
C  30.572500  13.568129  8.382349
H  30.170368  13.808780  9.184259
C  28.332849  12.944915  7.502642
Mn  28.570148  16.807370  18.293712
Mn  -7.160895  17.628393  20.238044
Mn  -4.471574  17.629397  22.392428
O  29.716061  15.237620  17.125557
O  -7.706798  16.237039  18.563609
O  -3.681802  13.108584  18.928657
O  -1.183595  10.770360  23.842448
O  -0.085799  11.836384  28.613212
O  -0.302807  9.920887  29.700577
O  2.444100  13.774975  19.753308
O  6.416148  16.778921  19.489395
O  7.948541  15.490989  18.561813
O  -5.269075  17.925608  19.100409
O  -3.577259  18.111367  20.452285
O  -3.035414  16.443215  14.800618
O  -4.011276  10.383110  13.271604
O  -0.026281  7.479240  12.224334
O  -0.618754  5.486427  12.813199
O  -5.848215  14.187327  9.178274
O  27.825594  13.133352  8.619930
O  27.632161  12.653055  6.483499
O  26.595428  16.626966  17.676122
O  26.373202  16.804358  17.849670
H  26.071748  15.914052  17.700060
H  26.168368  17.339881  17.083667
H  26.042762  17.698011  17.903529
H  25.948074  16.268836  18.519923
H  26.380932  15.713231  17.508559
H  26.504605  17.125672  16.862244
H  26.214745  17.500537  17.628247
H  26.087207  16.088097  18.274562
C  -9.355521  30.174679  37.704114
C  -8.996288  31.569380  37.498849
C  -7.943130  31.900065  36.638891
H  -7.569211  31.237691  36.103885
C  -7.456359  33.162224  36.570070
H  -6.753738  33.366392  35.996166
C  11.328888  0.640619  37.333081
H  11.669764  1.502810  37.294781
C  10.253314  0.362816  38.200819
C  -9.564994  32.556415  38.281010
H  -10.272638  32.358941  38.850725
C  8.717636  1.273539  39.804638
H  7.913178  1.000757  39.335461
H  8.927688  0.602463  40.472497
C  8.514927  2.628076  40.461127
C  7.991827  3.675357  39.717864
C  7.982551  4.933835  40.269626
C  8.355118  5.135325  41.595769
C  8.835126  4.062941  42.327063
C  8.985467  2.779027  41.719646
C  9.639004  1.670495  42.514374
H  10.187613  1.137985  41.932691
H  10.181816  2.051720  43.207368
H  8.960539  1.114556  42.908148
C  7.411527  3.470185  38.318113
H  6.832966  2.704388  38.318113
H  6.912195  4.247362  38.060784
H  8.125742  3.330280  37.695736
C  8.267194  6.497895  42.202587
H  7.640710  7.028731  41.705284
H  7.973082  6.426269  43.111618
H  9.132522  6.914933  42.178051
C  7.569984  6.127715  39.458141
H  7.716073  5.954340  38.515598
H  8.098688  6.898198  39.712478
C  5.676811  7.488946  39.069754
C  6.437791  8.337080  38.273829
H  7.337323  8.156676  38.126612
C  5.853433  9.457660  37.695137
H  6.363393  10.024310  37.163124
C  4.507903  9.730442  37.912969
H  4.117944  10.479504  37.528172
C  3.746730  8.881974  38.708895
C  4.331088  7.761393  39.287586
H  3.822287  7.196082  39.820198
C  2.323904  9.172829  38.938097
C  9.283056  4.279159  43.762122
H  9.227210  3.444078  44.248654
H  8.697732  4.923459  44.194794
C  11.095648  5.184861  44.966782
C  12.396153  5.668170  44.915316
H  12.854325  5.669843  44.105028
C  13.011236  6.143111  46.047564
H  13.872700  6.489862  46.002083
C  12.334896  6.103617  47.273169
H  12.759637  6.389452  48.048748
C  11.038255  5.641728  47.323438
C  10.446361  5.153399  46.161268
H  9.588569  4.799619  46.205552
C  10.296407  5.580478  48.620258
C  -13.511534  32.100886  39.292374
C  -13.873086  32.976800  38.143967
C  4.414568  0.428083  38.240316
H  3.901516  0.471929  39.018288
C  4.142872  1.282241  37.178085
H  3.449334  1.897757  37.240921
C  4.907716  1.215301  36.018907
H  4.726650  1.787306  35.307960
C  5.944062  0.293868  35.922558
C  -13.108242  32.909859  36.985387
H  -12.415670  32.295348  36.923748
C  -11.497394  33.079888  34.747222
H  -11.020477  33.245900  35.577258
H  -11.658169  32.127997  34.673614
C  8.661790  0.091708  33.559917
C  9.338130  1.286593  33.637116
C  10.257372  1.609580  32.601216
C  10.491000  0.717600  31.594640
C  -9.576395  33.007927  31.475550
C  -10.558440  32.714729  32.410912
C  -11.446765  31.502774  32.280452
H  -12.299726  31.686191  32.680808
H  -11.567346  31.294590  31.352272
H  -11.037869  30.759068  32.728684
C  9.192040  2.194972  34.765773
H  9.946063  2.098578  35.355835
H  9.147982  3.099336  34.446206
H  8.384684  1.984780  35.242132
C  11.606767  1.029542  30.586867
H  12.409873  1.258478  31.059036
H  11.766384  0.257720  30.035704
H  11.339323  1.767224  30.035704
C  11.022796  2.886466  32.683202
H  10.581822  3.514366  33.273264
H  11.115165  3.293463  31.807086
C  13.315782  3.390526  33.079369
C  14.600441  2.905209  33.293611
H  14.734550  1.998168  33.458780
C  15.686257  3.772421  33.258901
H  16.545209  3.447425  33.404921
C  15.487220  5.125284  33.010549
H  16.214768  5.706661  32.986013
C  14.202560  5.611271  32.796906
C  13.116745  4.744059  32.831615
H  12.257213  5.070728  32.686793
C  14.008161  7.018356  32.550947
C  -9.150880  32.017211  30.443241
H  -9.642676  31.194180  30.574300
H  -8.208835  31.823418  30.562331
C  -8.518599  31.971022  28.171563
C  -8.506232  32.671217  26.971092
H  -9.045564  33.419945  26.863972
C  -7.687667  32.250832  25.929807
H  -7.679358  32.720418  25.128496
C  -6.881663  31.129248  26.088393
H  -6.334407  30.846090  25.391809
C  -6.894030  30.429052  27.288864
C  -7.712595  30.849437  28.330150
H  -7.719938  30.380855  29.132059
C  -6.053050  29.221449  27.450443
Mn  -9.516877  27.495393  38.241513
Mn  -11.686189  29.611376  40.186443
Mn  -13.031912  31.939560  42.340827
O  -8.730197  29.272993  37.073358
O  -10.208289  29.834287  38.511409
O  9.812534  1.414114  38.876458
O  10.588393  4.746737  43.790249
O  9.116290  5.164444  48.561012
O  10.883663  5.934258  49.648378
O  6.172472  6.386105  39.701108
O  1.584954  8.324026  39.437196
O  1.934139  10.295083  38.509614
O  -12.889494  31.101133  39.048210
O  -13.896275  32.473409  40.400086
O  6.601465  0.306587  34.748419
O  12.337601  2.491518  33.219404
O  12.859929  7.394560  32.172134
O  14.881992  7.877869  32.760999
O  -9.362478  32.468723  29.126075
O  -5.962613  28.687935  28.567730
O  -5.449948  28.760565  26.431299
O  -8.373089  25.875773  37.623923
O  -8.415602  25.594624  37.797470
H  -7.493847  25.778709  37.647860
H  -8.776961  25.149471  37.031467
H  -9.024308  24.861627  37.851330
H  -7.739262  25.494213  38.467723
H  -7.474523  26.146881  37.456360
H  -8.759569  25.547765  36.810044
H  -8.939282  25.109306  37.576048
H  -7.652304  25.705075  38.222363
C  29.292672  7.861134  57.651914
C  29.651905  9.255835  57.446649
C  30.705063  9.586520  56.586691
H  31.078982  8.924146  56.051686
C  31.191835  10.848680  56.517870
H  31.894455  11.052848  55.943967
C  30.653081  11.797224  57.280881
H  30.993957  12.659415  57.242581
C  29.577508  11.519421  58.148619
C  29.083200  10.242870  58.228810
H  28.375555  10.045396  58.798525
C  28.041829  12.430144  59.752439
H  27.237371  12.157363  59.283262
H  28.251881  11.759068  0.576298
C  27.839121  13.784681  0.564927
C  27.316020  14.831962  59.665665
C  27.306744  16.090440  0.373427
C  27.679311  16.291930  1.699570
C  28.159319  15.219547  2.430863
C  28.309660  13.935632  1.823447
C  28.963198  12.827100  2.618175
H  29.511806  12.294590  2.036491
H  29.506009  13.208325  3.311169
H  28.284732  12.271161  3.011949
C  26.735720  14.626790  58.265914
H  26.157160  13.860993  58.265914
H  26.236388  15.403967  58.008585
H  27.449935  14.486885  57.643536
C  27.591387  17.654500  2.306388
H  26.964903  18.185336  1.809084
H  27.297276  17.582874  3.215418
H  -10.191284  18.071538  2.281852
C  26.894177  17.284320  59.405942
H  27.040266  17.110945  58.463399
H  27.422882  18.054803  59.660279
C  25.001005  18.645551  59.017554
C  25.761984  19.493685  58.221629
H  26.661516  19.313281  58.074413
C  25.177626  20.614265  57.642938
H  25.687586  21.180915  57.110925
C  23.832096  20.887047  57.860770
H  23.442138  21.636109  57.475973
C  23.070924  20.038579  58.656695
C  23.655281  18.917998  59.235387
H  23.146480  18.352687  59.767998
C  21.648097  20.329434  58.885898
C  28.607250  15.435764  3.865922
H  28.551403  14.600683  4.352454
H  28.021926  16.080064  4.298595
C  -8.228159  16.341466  5.070582
C  -6.927654  16.824775  5.019116
H  -6.469482  16.826448  4.208829
C  -6.312571  17.299716  6.151365
H  -5.451107  17.646467  6.105883
C  -6.988911  17.260222  7.376970
H  -6.564170  17.546057  8.152548
C  -8.285551  16.798333  7.427239
C  -8.877446  16.310004  6.265068
H  28.912762  15.956225  6.309353
C  -9.027400  16.737083  8.724058
C  25.136659  9.787341  59.240174
C  24.775107  10.663255  58.091768
C  23.738761  11.584688  58.188117
H  23.225709  11.628534  58.966089
C  23.467066  12.438846  57.125886
H  22.773527  13.054363  57.188722
C  24.231910  12.371906  55.966707
H  24.050844  12.943911  55.255761
C  25.268256  11.450473  55.870358
C  25.539951  10.596315  56.933188
H  26.232523  9.981803  56.871549
C  27.150800  10.766343  54.695022
H  27.627716  10.932355  55.525059
H  26.990024  9.814452  54.621414
C  27.985983  11.248313  53.507717
C  28.662323  12.443198  53.584916
C  29.581566  12.766185  52.549016
C  29.815193  11.874205  51.542440
C  29.071799  10.694382  51.423351
C  28.089753  10.401184  52.358712
C  27.201429  9.189230  52.228253
H  26.348467  9.372646  52.628609
H  27.080847  8.981045  51.300072
H  27.610324  8.445523  52.676484
C  28.516234  13.351577  54.713574
H  29.270256  13.255183  55.303636
H  28.472175  14.255941  54.394007
H  27.708877  13.141385  55.189932
C  30.930961  12.186147  50.534667
H  -6.913934  12.415083  51.006837
H  31.090577  11.414325  49.983504
H  30.663516  12.923829  49.983504
C  30.346989  14.043071  52.631003
H  29.906016  14.670971  53.221065
H  -8.208642  14.450068  51.754887
C  -6.008025  14.547131  53.027170
C  -4.723365  14.061814  53.241411
H  -4.589257  13.154773  53.406581
C  -3.637550  14.929026  53.206702
H  -2.778598  14.604030  53.352721
C  -3.836587  16.281889  52.958349
H  -3.109038  16.863266  52.933813
C  -5.121246  16.767876  52.744706
C  -6.207062  15.900664  52.779416
H  -7.066594  16.227333  52.634593
C  -5.315646  18.174961  52.498747
C  29.497313  9.703666  50.391042
H  29.005517  8.880635  50.522100
H  30.439358  9.509874  50.510131
C  30.129594  9.657477  48.119364
C  30.141962  10.357673  46.918893
H  29.602629  11.106400  46.811772
C  30.960526  9.937287  45.877607
H  30.968836  10.406874  45.076296
C  31.766530  8.815703  46.036194
H  32.313786  8.532545  45.339610
C  31.754163  8.115507  47.236665
C  30.935598  8.535892  48.277950
H  30.928255  8.067310  49.079860
C  32.595143  6.907904  47.398243
Mn  29.131316  5.181849  58.189313
Mn  26.962004  7.297831  0.290243
Mn  25.616088  9.626350  2.444627
O  29.917997  6.959448  57.021159
O  28.439904  7.520743  58.459210
O  29.136727  12.570719  58.824258
O  -8.735414  15.903342  3.894049
O  28.440483  16.321049  8.664813
O  -8.440143  17.090863  9.752178
O  25.496665  17.542710  59.648909
O  20.909148  19.480631  59.384997
O  21.258332  21.451688  58.457415
O  25.758699  8.787588  58.996011
O  24.751918  10.159864  0.503886
O  25.925658  11.463192  54.696219
O  -6.986206  13.648123  53.167205
O  -6.463878  18.551165  52.119935
O  -4.441815  19.034474  52.708800
O  29.285715  10.155178  49.073875
O  32.685580  6.374390  48.515531
O  33.198246  6.447020  46.379100
O  30.275104  3.562228  57.571723
O  30.232591  3.281079  57.745271
H  31.154346  3.465165  57.595661
H  29.871232  2.835926  56.979268
H  29.623885  2.548083  57.799131
H  30.908931  3.180668  58.415524
H  31.173670  3.833336  57.404160
H  29.888624  3.234221  56.757845
H  29.708911  2.795762  57.523848
H  30.995889  3.391530  58.170163
C  9.968285  19.018074  17.756313
C  10.327519  20.412775  17.551048
C  11.380677  20.743460  16.691090
H  11.754596  20.081086  16.156085
C  11.867448  22.005619  16.622269
H  12.570069  22.209787  16.048365
C  11.328695  22.954163  17.385280
H  11.669570  23.816354  17.346980
C  10.253121  22.676361  18.253018
C  9.758813  21.399810  18.333209
H  9.051168  21.202336  18.902924
C  8.717443  23.587084  19.856838
H  7.912985  23.314302  19.387661
H  8.927495  22.916007  20.524697
C  8.514734  24.941621  20.513326
C  7.991633  25.988902  19.770064
C  7.982358  27.247380  20.321826
C  8.354925  27.448870  21.647969
C  8.834933  26.376486  22.379262
C  8.985274  25.092571  21.771846
C  9.638811  23.984040  22.566574
H  10.187420  23.451530  21.984890
H  10.181622  24.365265  23.259567
H  8.960346  23.428101  22.960347
C  7.411334  25.783730  18.370313
H  6.832773  25.017933  18.370313
H  6.912002  26.560907  18.112983
H  8.125549  25.643825  17.747935
C  8.267000  28.811440  22.254787
H  7.640516  29.342276  21.757483
H  7.972889  28.739814  23.163817
H  9.132329  29.228478  22.230251
C  7.569791  28.441260  19.510341
H  7.715880  28.267884  18.567798
H  8.098495  29.211743  19.764678
C  5.676618  29.802491  19.121953
C  6.437597  30.650624  18.326028
H  7.337130  30.470220  18.178812
C  5.853240  31.771205  17.747337
H  6.363200  32.337855  17.215323
C  4.507709  32.043987  17.965169
H  4.117751  32.793049  17.580372
C  3.746537  31.195518  18.761094
C  4.330895  30.074938  19.339785
H  3.822094  29.509627  19.872397
C  2.323711  31.486374  18.990297
C  9.282863  26.592703  23.814321
H  9.227017  25.757623  24.300853
H  8.697539  27.237004  24.246993
C  11.095454  27.498406  25.018981
C  12.395960  27.981715  24.967515
H  12.854132  27.983388  24.157227
C  13.011042  28.456656  26.099764
H  13.872506  28.803407  26.054282
C  12.334702  28.417161  27.325369
H  12.759444  28.702996  28.100947
C  11.038062  27.955273  27.375638
C  10.446168  27.466944  26.213467
H  9.588376  27.113164  26.257752
C  10.296214  27.894023  28.672457
C  5.812273  20.944281  19.344573
C  5.450721  21.820195  18.196167
C  4.414375  22.741628  18.292515
H  3.901322  22.785474  19.070487
C  4.142679  23.595786  17.230284
H  3.449141  24.211302  17.293121
C  4.907523  23.528846  16.071106
H  4.726457  24.100851  15.360159
C  5.943869  22.607413  15.974757
C  6.215565  21.753254  17.037587
H  6.908137  21.138743  16.975947
C  7.826413  21.923283  14.799421
H  8.303330  22.089295  15.629457
H  7.665638  20.971392  14.725813
C  8.661597  22.405253  13.612116
C  9.337937  23.600137  13.689315
C  10.257179  23.923124  12.653415
C  10.490806  23.031145  11.646839
C  9.747412  21.851322  11.527750
C  8.765366  21.558123  12.463111
C  7.877042  20.346169  12.332652
H  7.024081  20.529586  12.733008
H  7.756460  20.137985  11.404471
H  8.285938  19.602463  12.780883
C  9.191847  24.508517  14.817973
H  9.945870  24.412123  15.408035
H  9.147788  25.412881  14.498406
H  8.384490  24.298325  15.294331
C  11.606574  23.343087  10.639066
H  12.409680  23.572022  11.111235
H  11.766190  22.571265  10.087903
H  11.339130  24.080769  10.087903
C  11.022603  25.200010  12.735402
H  10.581629  25.827911  13.325463
H  11.114972  25.607008  11.859285
C  13.315589  25.704071  13.131569
C  14.600248  25.218754  13.345810
H  14.734357  24.311713  13.510980
C  15.686064  26.085965  13.311101
H  16.545016  25.760970  13.457120
C  15.487027  27.438829  13.062748
H  16.214575  28.020205  13.038212
C  14.202367  27.924815  12.849105
C  13.116551  27.057604  12.883815
H  12.257020  27.384272  12.738992
C  14.007968  29.331900  12.603146
C  10.172927  20.860606  10.495441
H  9.681131  20.037575  10.626499
H  11.114972  20.666813  10.614530
C  10.805208  20.814417  8.223762
C  10.817575  21.514612  7.023292
H  10.278242  22.263340  6.916171
C  11.636140  21.094227  5.982006
H  11.644449  21.563813  5.180695
C  12.442144  19.972642  6.140593
H  12.989400  19.689485  5.444009
C  12.429777  19.272447  7.341063
C  11.611212  19.692832  8.382349
H  11.603869  19.224250  9.184259
C  13.270757  18.064844  7.502642
Mn  9.807510  16.338454  18.293712
Mn  7.637811  18.454436  20.238044
Mn  6.292281  20.782955  22.392428
O  10.593610  18.116388  17.125557
O  9.115517  18.677682  18.563609
O  9.812341  23.727659  18.928657
O  10.588199  27.060281  23.842448
O  9.116097  27.477989  28.613212
O  10.883470  28.247802  29.700577
O  6.172279  28.699649  19.753308
O  1.584761  30.637571  19.489395
O  1.933946  32.608628  18.561813
O  6.434312  19.944528  19.100409
O  5.427532  21.316804  20.452285
O  6.601272  22.620131  14.800618
O  12.337408  24.805063  13.271604
O  12.859736  29.708105  12.224334
O  14.881799  30.191414  12.813199
O  9.961329  21.312118  9.178274
O  13.361193  17.531330  8.619930
O  13.873859  17.603960  6.483499
O  10.950718  14.719168  17.676122
O  10.908205  14.438019  17.849670
H  11.829960  14.622104  17.700060
H  10.546846  13.992866  17.083667
H  10.299499  13.705022  17.903529
H  11.584545  14.337608  18.519923
H  11.849284  14.990276  17.508559
H  10.564238  14.391160  16.862244
H  10.384524  13.952701  17.628247
H  11.671503  14.548470  18.274562
C  -2.130278  10.280691  37.704114
C  -3.517741  9.894446  37.498849
C  -4.330702  10.641165  36.638891
H  -3.944028  11.296176  36.103885
C  -5.667149  10.431642  36.570070
H  -6.195274  10.938045  35.996166
C  32.428764  9.490796  37.333081
H  31.511647  9.354907  37.294781
C  33.207135  8.698223  38.200819
C  -4.088185  8.908415  38.281010
H  -3.563346  8.394314  38.850725
C  33.186265  6.912925  39.804638
H  33.824730  6.352634  39.335461
H  33.662408  7.430373  40.472497
C  32.114556  6.060105  40.461127
C  31.469134  5.083446  39.717864
C  30.383898  4.446175  40.269626
C  30.023119  4.668082  41.595769
C  30.711826  5.619973  42.327063
C  31.748559  6.392129  41.719646
C  32.381807  7.512375  42.514374
H  32.568670  8.253739  41.932691
H  31.780250  7.791851  43.207368
H  33.202497  7.202776  42.908148
C  31.936968  4.683478  38.318113
H  32.889448  4.565328  38.318113
H  31.513579  3.862455  38.060784
H  31.701022  5.371959  37.695736
C  28.887061  3.910652  42.202587
H  28.740585  3.102683  41.705284
H  29.096147  3.691758  43.111618
H  28.093231  4.451530  42.178051
C  29.556251  3.491941  39.458141
H  29.633354  3.705146  38.515598
H  28.624641  3.564571  39.712478
C  29.323977  1.171790  39.069754
C  28.208982  1.406750  38.273829
H  27.915450  2.275970  38.126612
C  27.530710  0.340391  37.695137
H  26.784996  0.498705  37.163124
C  8.643239  32.508887  37.912969
H  8.189511  31.796642  37.528172
C  9.758620  32.273927  38.708895
C  10.436892  33.340286  39.287586
H  11.180866  33.182307  39.820198
C  10.218145  30.896295  38.938097
C  30.300612  5.899783  43.762122
H  31.051736  6.268959  44.248654
H  30.035293  5.070728  44.194794
C  28.609955  7.016682  44.966782
C  27.541145  7.901298  44.915316
H  27.310609  8.297250  44.105028
C  26.822292  8.196505  46.047564
H  26.091265  8.769179  46.002083
C  27.194665  7.630525  47.273169
H  26.734754  7.855444  48.048748
C  28.242992  6.738545  47.323438
C  28.961845  6.470115  46.161268
H  29.697123  5.904134  46.205552
C  28.666961  6.126711  48.620258
C  -1.720416  5.718375  39.292374
C  -2.298203  4.967305  38.143967
C  36.069985  3.609086  38.240316
H  36.288540  3.142847  39.018288
C  35.466110  2.946712  37.178085
H  35.279827  2.038332  37.240921
C  35.141660  3.642556  36.018907
H  34.736822  3.199746  35.307960
C  35.421472  5.000775  35.922558
C  -2.622653  5.663149  36.985387
H  -2.436756  6.570190  36.923748
C  -3.575326  6.973171  34.747222
H  -3.957555  7.303187  35.577258
H  -2.670577  7.309881  34.673614
C  34.237683  7.455476  33.559917
C  32.864713  7.443761  33.637116
C  32.125377  8.078355  32.601216
C  32.781040  8.726672  31.594640
C  -4.473506  8.672785  31.475550
C  -3.728566  7.968908  32.410912
C  -2.234821  7.805574  32.280452
H  -1.967183  6.975179  32.680808
H  -1.994237  7.805239  31.352272
H  -1.795200  8.531541  32.728684
C  32.151078  6.863054  34.765773
H  31.857546  7.564254  35.355835
H  31.389906  6.372717  34.446206
H  32.736788  6.268959  35.242132
C  31.953007  9.536984  30.586867
H  31.353190  10.118026  31.059036
H  32.541616  10.061127  30.035704
H  31.447878  8.936530  30.035704
C  30.636849  8.102789  32.683202
H  30.313559  7.406944  33.273264
H  30.238195  7.979284  31.807086
C  29.053827  9.836542  33.079369
C  28.831794  11.191749  33.293611
H  29.550261  11.761411  33.458780
C  27.537859  11.698487  33.258901
H  27.389838  12.604858  33.404921
C  26.465764  10.849684  33.010549
H  25.598503  11.189071  32.986013
C  26.687217  9.494143  32.796906
C  27.981152  8.987405  32.831615
H  28.128014  8.079694  32.686793
C  25.565845  8.622245  32.550947
C  -3.828278  9.536650  30.443241
H  -2.869614  9.522258  30.574300
H  -4.131471  10.449381  30.562331
C  -4.104418  10.107316  28.171563
C  -4.716988  9.767929  26.971092
H  -5.095739  8.926489  26.863972
C  -4.762207  10.687019  25.929807
H  -5.173035  10.459422  25.128496
C  -4.193888  11.945831  26.088393
H  -4.222294  12.561347  25.391809
C  -3.581317  12.285218  27.288864
C  -3.536099  11.366128  28.330150
H  -3.126623  11.594060  29.132059
C  -2.955992  13.617330  27.450443
Mn  0.270536  11.480931  38.241513
Mn  -0.477110  8.543925  40.186443
Mn  -1.820514  6.214403  42.340827
O  -1.662057  11.273081  37.073358
O  -1.409106  9.712368  38.511409
O  32.517075  7.790847  38.876458
O  29.243009  6.796449  43.790249
O  29.617315  5.312717  48.561012
O  28.066951  6.458400  49.648378
O  30.031235  2.152465  39.701108
O  11.322705  30.680748  39.437196
O  9.441127  29.997622  38.509614
O  -1.165624  6.756954  39.048210
O  -1.850659  5.198918  40.400086
O  35.081756  5.563743  34.748419
O  30.321482  9.438917  33.219404
O  25.814159  7.439745  32.172134
O  24.384569  8.949249  32.760999
O  -4.113500  9.127645  29.126075
O  -2.539174  13.962408  28.567730
O  -2.858406  14.370074  26.431299
O  1.101468  13.280955  37.623923
O  1.366207  13.384713  37.797470
H  0.745906  14.090933  37.647860
H  1.932400  13.294344  37.031467
H  2.305353  13.224056  37.851330
H  1.114995  14.020646  38.467723
H  0.417398  13.923582  37.456360
H  1.578771  13.110258  36.810044
H  2.048344  13.173851  37.576048
H  0.888904  13.990523  38.222363
C  17.193915  21.437296  57.651914
C  15.806452  21.051051  57.446649
C  14.993492  21.797770  56.586691
H  15.380165  22.452781  56.051686
C  13.657044  21.588247  56.517870
H  13.128919  22.094650  55.943967
C  13.104957  20.647401  57.280881
H  12.187840  20.511512  57.242581
C  13.883328  19.854828  58.148619
C  15.236008  20.065020  58.228810
H  15.760848  19.550919  58.798525
C  13.862458  18.069530  59.752439
H  14.500923  17.509239  59.283262
H  14.338601  18.586978  0.576298
C  12.790749  17.216710  0.564927
C  12.145327  16.240051  59.665665
C  11.060091  15.602780  0.373427
C  10.699312  15.824687  1.699570
C  11.388020  16.776578  2.430863
C  12.424752  17.548734  1.823447
C  13.058000  18.668980  2.618175
H  13.244863  19.410344  2.036491
H  12.456444  18.948456  3.311169
H  13.878690  18.359381  3.011949
C  12.613161  15.840083  58.265914
H  13.565641  15.721933  58.265914
H  12.189772  15.019060  58.008585
H  12.377215  16.528564  57.643536
C  9.563254  15.067257  2.306388
H  9.416778  14.259288  1.809084
H  9.772340  14.848363  3.215418
H  8.769424  15.608135  2.281852
C  10.232444  14.648546  59.405942
H  10.309547  14.861751  58.463399
H  9.300834  14.721176  59.660279
C  10.000170  12.328395  59.017554
C  8.885175  12.563355  58.221629
H  8.591644  13.432575  58.074413
C  8.206903  11.496996  57.642938
H  7.461190  11.655310  57.110925
C  8.643432  10.195342  57.860770
H  8.189704  9.483098  57.475973
C  9.758813  9.960382  58.656695
C  10.437086  11.026741  59.235387
H  11.181060  10.868762  59.767998
C  10.218338  8.582751  58.885898
C  10.976805  17.056388  3.865922
H  11.727929  17.425564  4.352454
H  10.711486  16.227333  4.298595
C  9.286148  18.173287  5.070582
C  8.217338  19.057903  5.019116
H  7.986802  19.453855  4.208829
C  7.498485  19.353110  6.151365
H  6.767458  19.925784  6.105883
C  7.870858  18.787130  7.376970
H  7.410947  19.012049  8.152548
C  8.919185  17.895150  7.427239
C  9.638038  17.626720  6.265068
H  10.373316  17.060739  6.309353
C  9.343154  17.283316  8.724058
C  17.603778  16.874980  59.240174
C  17.025990  16.123910  58.091768
C  16.746178  14.765691  58.188117
H  16.964733  14.299452  58.966089
C  16.142303  14.103317  57.125886
H  15.956020  13.194937  57.188722
C  15.817853  14.799161  55.966707
H  15.413016  14.356351  55.255761
C  16.097665  16.157380  55.870358
C  16.701540  16.819754  56.933188
H  16.887437  17.726795  56.871549
C  15.748867  18.129776  54.695022
H  15.366638  18.459792  55.525059
H  16.653616  18.466486  54.621414
C  14.913877  18.612081  53.507717
C  13.540907  18.600366  53.584916
C  12.801570  19.234960  52.549016
C  13.457234  19.883277  51.542440
C  14.850687  19.829390  51.423351
C  15.595627  19.125513  52.358712
C  17.089373  18.962179  52.228253
H  17.357010  18.131784  52.628609
H  17.329956  18.961844  51.300072
H  17.528994  19.688146  52.676484
C  12.827271  18.019659  54.713574
H  12.533740  18.720859  55.303636
H  12.066099  17.529322  54.394007
H  13.412982  17.425564  55.189932
C  12.629200  20.693590  50.534667
H  12.029383  21.274631  51.006837
H  13.217809  21.217732  49.983504
H  12.124071  20.093135  49.983504
C  11.313043  19.259394  52.631003
H  10.989752  18.563549  53.221065
H  10.914388  19.135889  51.754887
C  9.730020  20.993147  53.027170
C  9.507988  22.348354  53.241411
H  10.226454  22.918016  53.406581
C  8.214053  22.855092  53.206702
H  8.066031  23.761463  53.352721
C  7.141957  22.006289  52.958349
H  6.274696  22.345676  52.933813
C  7.363410  20.650748  52.744706
C  8.657345  20.144010  52.779416
H  8.804208  19.236299  52.634593
C  6.242038  19.778850  52.498747
C  15.495916  20.693255  50.391042
H  16.454579  20.678863  50.522100
H  15.192722  21.605986  50.510131
C  15.219776  21.263921  48.119364
C  14.607205  20.924534  46.918893
H  14.228454  20.083094  46.811772
C  14.561987  21.843624  45.877607
H  14.151158  21.616027  45.076296
C  15.130306  23.102436  46.036194
H  15.101899  23.717952  45.339610
C  15.742876  23.441824  47.236665
C  15.788094  22.522733  48.277950
H  16.197570  22.750665  49.079860
C  16.368201  24.773935  47.398243
Mn  19.594729  22.637536  58.189313
Mn  18.846890  19.700865  0.290243
Mn  17.503293  17.371008  2.444627
O  17.662136  22.429686  57.021159
O  17.915087  20.868973  58.459210
O  13.193268  18.947452  58.824258
O  9.919202  17.953054  3.894049
O  10.293508  16.469322  8.664813
O  8.743144  17.615005  9.752178
O  10.707428  13.309070  59.648909
O  11.322898  8.367203  59.384997
O  9.441320  7.684077  58.457415
O  18.158570  17.913559  58.996011
O  17.473534  16.355523  0.503886
O  15.757949  16.720348  54.696219
O  10.997675  20.595522  53.167205
O  6.490352  18.596350  52.119935
O  5.060762  20.105854  52.708800
O  15.210693  20.284250  49.073875
O  16.785020  25.119013  48.515531
O  16.465787  25.526679  46.379100
O  20.425661  24.437560  57.571723
O  20.690400  24.541318  57.745271
H  20.070100  25.247538  57.595661
H  21.256593  24.450949  56.979268
H  21.629546  24.380661  57.799131
H  20.439188  25.177251  58.415524
H  19.741592  25.080187  57.404160
H  20.902964  24.266863  56.757845
H  21.372537  24.330456  57.523848
H  20.213097  25.147128  58.170163
C  -2.130471  32.594236  17.756313
C  -3.517934  32.207990  17.551048
C  -4.330895  32.954709  16.691090
H  15.379778  0.139571  16.156085
C  -5.667343  32.745186  16.622269
H  -6.195468  33.251590  16.048365
C  -6.219429  31.804340  17.385280
H  -7.136546  31.668452  17.346980
C  -5.441059  31.011767  18.253018
C  -4.088379  31.221960  18.333209
H  -3.563539  30.707858  18.902924
C  -5.461929  29.226470  19.856838
H  -4.823464  28.666179  19.387661
H  -4.985785  29.743918  20.524697
C  -6.533638  28.373650  20.513326
C  -7.179059  27.396991  19.770064
C  -8.264295  26.759719  20.321826
C  -8.625074  26.981627  21.647969
C  -7.936367  27.933518  22.379262
C  -6.899634  28.705674  21.771846
C  -6.266387  29.825920  22.566574
H  -6.079524  30.567284  21.984890
H  -6.867943  30.105396  23.259567
H  -5.445696  29.516321  22.960347
C  -6.711225  26.997023  18.370313
H  -5.758745  26.878873  18.370313
H  -7.134614  26.176000  18.112983
H  -6.947171  27.685504  17.747935
C  -9.761132  26.224197  22.254787
H  -9.907608  25.416228  21.757483
H  -9.552046  26.005302  23.163817
H  -10.554962  26.765075  22.230251
C  -9.091942  25.805486  19.510341
H  -9.014839  26.018690  18.567798
H  -10.023552  25.878116  19.764678
C  -9.324216  23.485335  19.121953
C  -10.439211  23.720295  18.326028
H  -10.732743  24.589515  18.178812
C  -11.117484  22.653936  17.747337
H  -11.863197  22.812250  17.215323
C  -10.680955  21.352282  17.965169
H  -11.134682  20.640037  17.580372
C  -9.565573  21.117322  18.761094
C  -8.887301  22.183681  19.339785
H  -8.143327  22.025701  19.872397
C  -9.106049  19.739690  18.990297
C  -8.347582  28.213328  23.814321
H  -7.596458  28.582504  24.300853
H  -8.612900  27.384272  24.246993
C  -10.038238  29.330227  25.018981
C  -11.107049  30.214843  24.967515
H  -11.337584  30.610795  24.157227
C  -11.825902  30.510050  26.099764
H  -12.556928  31.082724  26.054282
C  -11.453528  29.944070  27.325369
H  -11.913439  30.168989  28.100947
C  -10.405201  29.052090  27.375638
C  -9.686348  28.783659  26.213467
H  -8.951070  28.217679  26.257752
C  -9.981232  28.440256  28.672457
C  -1.720609  28.031920  19.344573
C  -2.298397  27.280850  18.196167
C  -2.578208  25.922631  18.292515
H  -2.359654  25.456392  19.070487
C  -3.182083  25.260257  17.230284
H  -3.368366  24.351877  17.293121
C  -3.506533  25.956101  16.071106
H  -3.911371  25.513291  15.360159
C  -3.226722  27.314320  15.974757
C  -2.622847  27.976694  17.037587
H  -2.436950  28.883735  16.975947
C  -3.575520  29.286716  14.799421
H  -3.957748  29.616731  15.629457
H  -2.670770  29.623425  14.725813
C  -4.410510  29.769021  13.612116
C  -5.783480  29.757306  13.689315
C  -6.522816  30.391900  12.653415
C  -5.867153  31.040217  11.646839
C  -4.473699  30.986330  11.527750
C  -3.728759  30.282453  12.463111
C  -2.235014  30.119118  12.332652
H  -1.967376  29.288724  12.733008
H  -1.994430  30.118784  11.404471
H  -1.795393  30.845086  12.780883
C  -6.497115  29.176599  14.817973
H  -6.790647  29.877799  15.408035
H  -7.258288  28.686261  14.498406
H  -5.911405  28.582504  15.294331
C  -6.695186  31.850529  10.639066
H  -7.295003  32.431571  11.111235
H  -6.106577  32.374672  10.087903
H  -7.200316  31.250075  10.087903
C  -8.011344  30.416333  12.735402
H  -8.334634  29.720489  13.325463
H  -8.409998  30.292828  11.859285
C  -9.594366  32.150087  13.131569
C  9.507601  0.035144  13.345810
H  10.226068  0.604806  13.510980
C  8.213666  0.541882  13.311101
H  8.065644  1.448253  13.457120
C  -12.182429  33.163229  13.062748
H  6.274310  0.032466  13.038212
C  -11.960976  31.807687  12.849105
C  -10.667041  31.300949  12.883815
H  -10.520179  30.393239  12.738992
C  -13.082348  30.935790  12.603146
C  -3.828471  31.850195  10.495441
H  -2.869807  31.835802  10.626499
H  -4.131664  32.762926  10.614530
C  -4.104611  32.420861  8.223762
C  -4.717182  32.081473  7.023292
H  -5.095932  31.240034  6.916171
C  -4.762400  33.000564  5.982006
H  -5.173228  32.772967  5.180695
C  15.129919  0.789226  6.140593
H  15.101513  1.404742  5.444009
C  15.742490  1.128613  7.341063
C  15.787708  0.209523  8.382349
H  16.197184  0.437455  9.184259
C  16.367814  2.460725  7.502642
Mn  19.594922  0.323991  18.293712
Mn  -0.476916  30.857470  20.238044
Mn  -1.820707  28.527947  22.392428
O  17.661750  0.116476  17.125557
O  -1.409299  32.025913  18.563609
O  -6.131119  30.104392  18.928657
O  -9.405184  29.109993  23.842448
O  -9.030878  27.626262  28.613212
O  -10.581243  28.771945  29.700577
O  -8.616958  24.466010  19.753308
O  -8.001489  19.524142  19.489395
O  -9.883067  18.841017  18.561813
O  -1.165817  29.070499  19.100409
O  -1.850853  27.512463  20.452285
O  -3.566437  27.877288  14.800618
O  -8.326712  31.752462  13.271604
O  -12.834035  29.753290  12.224334
O  -14.263624  31.262793  12.813199
O  -4.113693  31.441189  9.178274
O  16.784633  2.805803  8.619930
O  16.465401  3.213469  6.483499
O  20.425275  2.124350  17.676122
O  20.690014  2.228108  17.849670
H  20.069713  2.934328  17.700060
H  21.256207  2.137738  17.083667
H  21.629160  2.067451  17.903529
H  20.438802  2.864041  18.519923
H  19.741205  2.766977  17.508559
H  20.902578  1.953653  16.862244
H  21.372151  2.017246  17.628247
H  20.212711  2.833918  18.274562
C  17.193722  23.189459  52.061886
C  15.806259  23.575704  52.267151
C  14.993298  22.828985  53.127109
H  15.379972  22.173974  53.662115
C  13.656851  23.038508  53.195930
H  13.128726  22.532105  53.769834
C  13.104764  23.979354  52.432919
H  12.187647  24.115243  52.471219
C  13.883135  24.771927  51.565181
C  15.235815  24.561735  51.484990
H  15.760654  25.075836  50.915275
C  13.862265  26.557225  49.961362
H  14.500730  27.117515  50.430539
H  14.338408  26.039777  49.293503
C  12.790556  27.410044  49.304873
C  12.145134  28.386703  50.048136
C  11.059898  29.023975  49.496374
C  10.699119  28.802068  48.170231
C  11.387826  27.850177  47.438937
C  12.424559  27.078021  48.046354
C  13.057807  25.957775  47.251626
H  13.244670  25.216411  47.833309
H  12.456250  25.678299  46.558632
H  13.878497  26.267374  46.857852
C  12.612968  28.786672  51.447887
H  13.565448  28.904821  51.447887
H  12.189579  29.607695  51.705216
H  12.377022  28.098191  52.070264
C  9.563061  29.559498  47.563413
H  9.416585  30.367467  48.060716
H  9.772147  29.778392  46.654382
H  8.769231  29.018620  47.587949
C  10.232251  29.978209  50.307859
H  10.309354  29.765004  51.250402
H  9.300641  29.905579  50.053522
C  9.999977  32.298360  50.696246
C  8.884982  32.063399  51.492171
H  8.591450  31.194180  51.639388
C  8.206710  33.129758  52.070863
H  7.460996  32.971445  52.602876
C  27.967239  0.961263  51.853031
H  27.513511  1.673507  52.237828
C  29.082620  1.196223  51.057105
C  29.760892  0.129864  50.478414
H  30.504866  0.287843  49.945802
C  29.542145  2.573855  50.827903
C  10.976612  27.570366  46.003878
H  11.727736  27.201191  45.517346
H  10.711293  28.399422  45.571206
C  9.285955  26.453468  44.799218
C  8.217145  25.568852  44.850684
H  7.986609  25.172900  45.660972
C  7.498292  25.273645  43.718436
H  6.767265  24.700971  43.763917
C  7.870665  25.839625  42.492831
H  7.410754  25.614706  41.717252
C  8.918992  26.731605  42.442562
C  9.637845  27.000035  43.604732
H  10.373123  27.566015  43.560448
C  9.342961  27.343439  41.145742
C  17.603584  27.751775  50.473626
C  17.025797  28.502845  51.622033
C  16.745985  29.861064  51.525684
H  16.964540  30.327303  50.747712
C  16.142110  30.523438  52.587915
H  15.955827  31.431818  52.525079
C  15.817660  29.827593  53.747093
H  15.412822  30.270403  54.458040
C  16.097472  28.469375  53.843442
C  16.701347  27.807000  52.780613
H  16.887244  26.899959  52.842252
C  15.748674  26.496979  55.018778
H  15.366445  26.166963  54.188742
H  16.653423  26.160269  55.092386
C  14.913683  26.014674  56.206083
C  13.540713  26.026388  56.128884
C  12.801377  25.391794  57.164784
C  13.457040  24.743478  58.171360
C  14.850494  24.797365  58.290450
C  15.595434  25.501242  57.355088
C  17.089179  25.664576  57.485548
H  17.356817  26.494971  57.085192
H  17.329763  25.664911  58.413728
H  17.528800  24.938609  57.037316
C  12.827078  26.607096  55.000227
H  12.533546  25.905896  54.410165
H  12.065906  27.097433  55.319794
H  13.412788  27.201191  54.523868
C  12.629007  23.933165  59.179133
H  12.029190  23.352124  58.706964
H  13.217616  23.409023  59.730296
H  12.123878  24.533620  59.730296
C  11.312849  25.367361  57.082798
H  10.989559  26.063206  56.492736
H  10.914195  25.490866  57.958914
C  9.729827  23.633607  56.686631
C  9.507794  22.278401  56.472389
H  10.226261  21.708739  56.307220
C  8.213859  21.771663  56.507099
H  8.065838  20.865291  56.361079
C  7.141764  22.620466  56.755451
H  6.274503  22.281079  56.779987
C  7.363217  23.976007  56.969094
C  8.657152  24.482745  56.934385
H  8.804014  25.390456  57.079207
C  6.241845  24.847905  57.215053
C  15.495722  23.933500  59.322759
H  16.454386  23.947892  59.191700
H  15.192529  23.020769  59.203669
C  15.219582  23.362834  1.750437
C  14.607012  23.702221  2.950908
H  14.228261  24.543661  3.058028
C  14.561793  22.783131  3.992193
H  14.150965  23.010728  4.793504
C  15.130112  21.524319  3.833607
H  15.101706  20.908803  4.530191
C  15.742683  21.184931  2.633136
C  15.787901  22.104022  1.591850
H  16.197377  21.876090  0.789941
C  16.368008  19.852819  2.471557
Mn  19.594922  21.989219  51.524487
Mn  18.846890  24.926225  49.579557
Mn  17.503486  27.255747  47.425173
O  17.661943  22.197069  52.692642
O  17.914894  23.757782  51.254591
O  13.193075  25.679303  50.889542
O  9.919009  26.673701  45.975751
O  10.293315  28.157433  41.204988
O  8.742951  27.011750  40.117622
O  10.707235  31.317684  50.064892
O  30.646705  2.789402  50.328804
O  28.765127  3.472528  51.256386
O  18.158376  26.713196  50.717790
O  17.473341  28.271231  49.365914
O  15.757756  27.906407  55.017581
O  10.997482  24.031233  56.546596
O  6.490159  26.030405  57.593866
O  5.060569  24.520901  57.005001
O  15.210500  24.342505  0.795925
O  16.784826  19.507742  1.354270
O  16.465594  19.100076  3.490701
O  20.425468  20.189194  52.142077
O  20.690207  20.085437  51.968530
H  20.069906  19.379217  52.118140
H  21.256400  20.175806  52.734533
H  21.629353  20.246094  51.914670
H  20.438995  19.449504  51.298277
H  19.741398  19.546567  52.309640
H  20.902771  20.359892  52.955956
H  21.372344  20.296299  52.189952
H  20.212904  19.479627  51.543637
C  17.193915  0.875914  12.165687
C  15.806452  1.262159  12.370952
C  14.993492  0.515440  13.230910
H  -3.943835  33.330579  13.765915
C  13.657044  0.724963  13.299731
H  13.128919  0.218560  13.873635
C  13.104957  1.665809  12.536720
H  12.187840  1.801698  12.575020
C  13.883328  2.458383  11.668982
C  15.236008  2.248190  11.588791
H  15.760848  2.762291  11.019076
C  13.862458  4.243680  10.065162
H  14.500923  4.803971  10.534339
H  14.338601  3.726232  9.397303
C  12.790749  5.096500  9.408674
C  12.145327  6.073159  10.151936
C  11.060091  6.710430  9.600174
C  10.699312  6.488523  8.274031
C  11.388020  5.536632  7.542738
C  12.424752  4.764476  8.150154
C  13.058000  3.644230  7.355426
H  13.244863  2.902866  7.937110
H  12.456444  3.364754  6.662433
H  13.878690  3.953829  6.961653
C  12.613161  6.473127  11.551687
H  13.565641  6.591277  11.551687
H  12.189772  7.294150  11.809017
H  12.377215  5.784646  12.174065
C  9.563254  7.245953  7.667213
H  9.416778  8.053922  8.164517
H  9.772340  7.464848  6.758183
H  8.769424  6.705075  7.691749
C  10.232444  7.664664  10.411659
H  10.309547  7.451459  11.354202
H  9.300834  7.592034  10.157322
C  10.000170  9.984815  10.800047
C  8.885175  9.749855  11.595972
H  8.591644  8.880635  11.743188
C  8.206903  10.816214  12.174663
H  7.461190  10.657900  12.706677
C  8.643432  12.117868  11.956831
H  8.189704  12.830113  12.341628
C  9.758813  12.352828  11.160906
C  10.437086  11.286469  10.582215
H  11.181060  11.444448  10.049603
C  10.218338  13.730460  10.931703
C  10.976805  5.256822  6.107679
H  11.727929  4.887646  5.621147
H  10.711486  6.085877  5.675007
C  9.286148  4.139923  4.903019
C  8.217338  3.255307  4.954485
H  7.986802  2.859355  5.764773
C  7.498485  2.960100  3.822236
H  6.767458  2.387426  3.867718
C  7.870858  3.526080  2.596631
H  7.410947  3.301161  1.821053
C  8.919185  4.418060  2.546362
C  9.638038  4.686490  3.708533
H  10.373316  5.252471  3.664248
C  9.343154  5.029894  1.249543
C  17.603778  5.438230  10.577427
C  17.025990  6.189300  11.725833
C  16.746178  7.547519  11.629485
H  16.964733  8.013758  10.851513
C  16.142303  8.209893  12.691716
H  15.956020  9.118273  12.628879
C  15.817853  7.514049  13.850894
H  15.413016  7.956859  14.561841
C  16.097665  6.155830  13.947243
C  16.701540  5.493456  12.884413
H  16.887437  4.586415  12.946053
C  15.748867  4.183434  15.122579
H  15.366638  3.853418  14.292543
H  16.653616  3.846724  15.196187
C  14.913877  3.701129  16.309884
C  13.540907  3.712844  16.232685
C  12.801570  3.078250  17.268585
C  13.457234  2.429933  18.275161
C  14.850687  2.483820  18.394250
C  15.595627  3.187697  17.458889
C  17.089373  3.351031  17.589348
H  17.357010  4.181426  17.188992
H  17.329956  3.351366  18.517529
H  17.528994  2.625064  17.141117
C  12.827271  4.293551  15.104027
H  12.533740  3.592351  14.513965
H  12.066099  4.783889  15.423594
H  13.412982  4.887646  14.627669
C  12.629200  1.619621  19.282934
H  12.029383  1.038579  18.810765
H  13.217809  1.095478  19.834097
H  12.124071  2.220075  19.834097
C  11.313043  3.053816  17.186598
H  10.989752  3.749661  16.596537
H  10.914388  3.177321  18.062715
C  9.730020  1.320063  16.790431
C  -9.816012  33.435006  16.576190
H  -9.097546  32.865344  16.411020
C  -11.109947  32.928268  16.610899
H  -11.257969  32.021896  16.464880
C  7.141957  0.306921  16.859252
H  -13.049304  33.437684  16.883788
C  7.363410  1.662462  17.072895
C  8.657345  2.169200  17.038185
H  8.804208  3.076911  17.183008
C  6.242038  2.534360  17.318854
C  15.495916  1.619955  19.426559
H  16.454579  1.634347  19.295501
H  15.192722  0.707224  19.307470
C  15.219776  1.049289  21.698238
C  14.607205  1.388677  22.898708
H  14.228454  2.230116  23.005829
C  14.561987  0.469586  23.939994
H  14.151158  0.697183  24.741305
C  -4.193694  32.680924  23.781407
H  -4.222101  32.065408  24.477991
C  -3.581124  32.341536  22.580937
C  -3.535906  33.260627  21.539651
H  -3.126430  33.032695  20.737741
C  -2.955799  31.009424  22.419358
Mn  0.270536  33.146159  11.628288
Mn  18.847084  2.612680  9.683956
Mn  17.503293  4.942202  7.529572
O  -1.661864  33.353674  12.796443
O  17.915087  1.444237  11.358391
O  13.193268  3.365758  10.993343
O  9.919202  4.360156  6.079552
O  10.293508  5.843888  1.308788
O  8.743144  4.698205  0.221423
O  10.707428  9.004140  10.168692
O  11.322898  13.946007  10.432605
O  9.441320  14.629133  11.360187
O  18.158570  4.399651  10.821591
O  17.473534  5.957687  9.469715
O  15.757949  5.592862  15.121382
O  10.997675  1.717688  16.650396
O  6.490352  3.716860  17.697666
O  5.060762  2.207356  17.108801
O  15.210693  2.028960  20.743726
O  -2.538980  30.664347  21.302070
O  -2.858213  30.256681  23.438501
O  1.101661  31.345799  12.245878
O  1.366400  31.242042  12.072330
H  0.746100  30.535822  12.221940
H  1.932593  31.332411  12.838333
H  2.305546  31.402699  12.018471
H  1.115188  30.606109  11.402077
H  0.417592  30.703173  12.413441
H  1.578964  31.516497  13.059756
H  2.048537  31.452904  12.293753
H  0.889097  30.636232  11.647438
C  -2.130471  12.032854  32.114086
C  -3.517934  12.419099  32.319351
C  -4.330895  11.672380  33.179309
H  -3.944222  11.017369  33.714314
C  -5.667343  11.881903  33.248130
H  -6.195468  11.375500  33.822033
C  -6.219429  12.822749  32.485119
H  -7.136546  12.958638  32.523419
C  -5.441059  13.615322  31.617381
C  -4.088379  13.405130  31.537190
H  -3.563539  13.919231  30.967475
C  -5.461929  15.400620  30.013561
H  -4.823464  15.960910  30.482738
H  -4.985785  14.883172  29.345702
C  -6.533638  16.253439  29.357073
C  -7.179059  17.230098  30.100335
C  -8.264295  17.867370  29.548573
C  -8.625074  17.645463  28.222430
C  -7.936367  16.693572  27.491137
C  -6.899634  15.921416  28.098553
C  -6.266387  14.801170  27.303825
H  -6.079524  14.059806  27.885509
H  -6.867943  14.521694  26.610831
H  -5.445696  15.110769  26.910051
C  -6.711225  17.630067  31.500086
H  -5.758745  17.748216  31.500086
H  -7.134614  18.451089  31.757415
H  -6.947171  16.941586  32.122464
C  -9.761132  18.402892  27.615612
H  -9.907608  19.210862  28.112916
H  -9.552046  18.621787  26.706582
H  28.093038  17.862015  27.640148
C  -9.091942  18.821604  30.360058
H  -9.014839  18.608399  31.302601
H  -10.023552  18.748974  30.105721
C  -9.324216  21.141755  30.748446
C  -10.439211  20.906794  31.544371
H  -10.732743  20.037575  31.691587
C  -11.117484  21.973153  32.123062
H  -11.863197  21.814840  32.655075
C  -10.680955  23.274807  31.905230
H  -11.134682  23.987052  32.290027
C  -9.565573  23.509768  31.109305
C  -8.887301  22.443409  30.530613
H  -8.143327  22.601388  29.998002
C  -9.106049  24.887399  30.880102
C  -8.347582  16.413761  26.056078
H  -7.596458  16.044586  25.569546
H  -8.612900  17.242817  25.623405
C  28.609762  15.296863  24.851418
C  27.540951  14.412247  24.902884
H  27.310416  14.016295  25.713171
C  26.822098  14.117040  23.770635
H  26.091072  13.544366  23.816117
C  27.194472  14.683020  22.545030
H  26.734561  14.458101  21.769452
C  28.242799  15.575000  22.494761
C  28.961652  15.843430  23.656932
H  -8.951070  16.409410  23.612647
C  28.666768  16.186834  21.197942
C  -1.720609  16.595170  30.525826
C  -2.298397  17.346240  31.674232
C  -2.578208  18.704459  31.577883
H  -2.359654  19.170698  30.799911
C  -3.182083  19.366833  32.640114
H  -3.368366  20.275213  32.577278
C  -3.506533  18.670988  33.799293
H  -3.911371  19.113798  34.510239
C  -3.226722  17.312770  33.895642
C  -2.622847  16.650395  32.832812
H  -2.436950  15.743354  32.894451
C  -3.575520  15.340374  35.070978
H  -3.957748  15.010358  34.240941
H  -2.670770  15.003664  35.144586
C  -4.410510  14.858069  36.258283
C  -5.783480  14.869783  36.181084
C  -6.522816  14.235189  37.216984
C  -5.867153  13.586873  38.223560
C  -4.473699  13.640760  38.342649
C  -3.728759  14.344637  37.407288
C  -2.235014  14.507971  37.537747
H  -1.967376  15.338366  37.137391
H  -1.994430  14.508306  38.465928
H  -1.795393  13.782004  37.089516
C  -6.497115  15.450491  35.052426
H  -6.790647  14.749291  34.462364
H  -7.258288  15.940828  35.371993
H  -5.911405  16.044586  34.576068
C  -6.695186  12.776560  39.231333
H  31.352997  12.195518  38.759163
H  -6.106577  12.252418  39.782496
H  -7.200316  13.377015  39.782496
C  -8.011344  14.210756  37.134997
H  -8.334634  14.906601  36.544935
H  30.238002  14.334261  38.011113
C  29.053634  12.477002  36.738830
C  28.831601  11.121796  36.524589
H  29.550068  10.552134  36.359419
C  27.537666  10.615058  36.559298
H  27.389644  9.708686  36.413279
C  26.465571  11.463861  36.807651
H  25.598310  11.124474  36.832187
C  26.687024  12.819402  37.021294
C  27.980959  13.326140  36.986584
H  28.127821  14.233851  37.131407
C  25.565652  13.691299  37.267253
C  -3.828471  12.776895  39.374958
H  -2.869807  12.791287  39.243900
H  -4.131664  11.864164  39.255869
C  -4.104611  12.206229  41.646636
C  -4.717182  12.545616  42.847107
H  -5.095932  13.387056  42.954228
C  -4.762400  11.626526  43.888393
H  -5.173228  11.854123  44.689704
C  -4.194081  10.367714  43.729806
H  -4.222487  9.752198  44.426390
C  -3.581510  10.028326  42.529335
C  -3.536292  10.947417  41.488050
H  -3.126816  10.719485  40.686140
C  -2.956186  8.696214  42.367757
Mn  0.270729  10.832614  31.576687
Mn  -0.477110  13.769285  29.631757
Mn  -1.820707  16.099142  27.477373
O  -1.662250  11.040464  32.744841
O  -1.409299  12.601177  31.306790
O  -6.131119  14.522698  30.941742
O  29.242816  15.517096  26.027951
O  -9.030878  17.000828  21.257187
O  28.066757  15.855145  20.169822
O  -8.616958  20.161079  30.117091
O  -8.001489  25.102947  30.381003
O  -9.883067  25.786073  31.308585
O  -1.165817  15.556591  30.769989
O  -1.850853  17.114626  29.418114
O  -3.566437  16.749802  35.069781
O  30.321288  12.874628  36.598795
O  25.813965  14.873800  37.646065
O  24.384376  13.364296  37.057200
O  -4.113693  13.185900  40.692125
O  -2.539367  8.351137  41.250469
O  -2.858599  7.943471  43.386900
O  1.101275  9.032589  32.194277
O  1.366014  8.928832  32.020729
H  0.745713  8.222612  32.170339
H  1.932207  9.019201  32.786732
H  2.305160  9.089489  31.966869
H  1.114802  8.292899  31.350476
H  0.417205  8.389962  32.361840
H  1.578578  9.203287  33.008155
H  2.048151  9.139694  32.242152
H  0.888711  8.323022  31.595837
C  30.809799  6.985220  52.061886
C  31.838029  7.993676  52.267151
C  31.597832  9.071080  53.127109
H  30.837239  9.063717  53.662115
C  32.447508  10.123716  53.195930
H  32.273012  10.834287  53.769834
C  -5.109652  10.131414  52.432919
H  -4.533410  10.857717  52.471219
C  -4.812449  9.061039  51.565181
C  32.977179  7.994680  51.484990
H  33.159984  7.283105  50.915275
C  -3.255901  8.186464  49.961362
H  -3.089908  7.353392  50.430539
H  -3.942096  8.032836  49.293503
C  -1.981483  8.688181  49.304873
C  -0.812961  8.758804  50.048136
C  0.281551  9.380009  49.496374
C  0.269763  9.803407  48.170231
C  -0.898952  9.682914  47.438937
C  -2.086026  9.171156  48.046354
C  -3.372811  9.182870  47.251626
H  -4.108282  9.391724  47.833309
H  -3.314066  9.843571  46.558632
H  -3.515036  8.317332  46.857852
C  -0.700495  8.153663  51.447887
H  -1.074414  7.269717  51.447887
H  0.222226  8.109817  51.705216
H  -1.178764  8.702239  52.070264
C  1.493745  10.408547  47.563413
H  2.266705  10.131414  48.060716
H  1.578771  10.118026  46.654382
H  1.422246  11.366463  47.587949
C  1.521765  9.619656  50.307859
H  1.298573  9.659485  51.250402
H  1.924670  10.462769  50.053522
C  3.647212  8.660736  50.696246
C  4.001227  9.743830  51.492171
H  3.395227  10.432646  51.639388
C  5.263858  9.798052  52.070863
H  5.499610  10.523015  52.602876
C  6.172859  8.769179  51.853031
H  7.016544  8.805996  52.237828
C  5.818650  7.685750  51.057105
C  4.556019  7.631529  50.478414
H  4.320846  6.908239  49.945802
C  6.781951  6.598975  50.827903
C  -0.935668  10.178942  46.003878
H  -1.630946  9.713037  45.517346
H  -0.085026  9.994187  45.571206
C  -1.057603  12.201543  44.799218
C  -1.289297  13.569468  44.850684
H  -1.516934  13.967094  45.660972
C  -1.185527  14.339616  43.718436
H  -1.315964  15.259041  43.763917
C  -0.881561  13.734141  42.492831
H  -0.846391  14.244896  41.717252
C  -0.633247  12.380274  42.442562
C  -0.760206  11.623514  43.604732
H  -0.637692  10.703754  43.560448
C  -0.315368  11.707189  41.145742
C  34.555950  4.349111  50.473626
C  35.495289  4.473955  51.622033
C  -1.836553  4.037169  51.525684
H  -1.542055  3.614776  50.747712
C  -0.960983  4.228953  52.587915
H  -0.081161  3.936090  52.525079
C  -1.401376  4.857858  53.747093
H  -0.815473  4.987052  54.458040
C  -2.717534  5.294643  53.843442
C  35.054895  5.102859  52.780613
H  34.176426  5.395388  52.842252
C  34.396720  6.582909  55.018778
H  34.302032  7.078937  54.188742
H  33.652746  5.967728  55.092386
C  -4.251473  7.547184  56.206083
C  -3.554843  8.730354  56.128884
C  -3.734749  9.687935  57.164784
C  -4.624040  9.444272  58.171360
C  33.373901  8.210562  58.290450
C  33.611006  7.213487  57.355088
C  33.005585  5.838198  57.485548
H  33.590909  5.191220  57.085192
H  32.885583  5.629679  58.413728
H  32.157068  5.820459  57.037316
C  -2.695118  9.058027  55.000227
H  -3.155609  9.662832  54.410165
H  -1.889887  9.472052  55.319794
H  -2.473472  8.253739  54.523868
C  -4.911774  10.566526  59.179133
H  -5.115063  11.376504  58.706964
H  -5.660000  10.318847  59.730296
H  -4.139201  10.703754  59.730296
C  -3.011645  10.989254  57.082798
H  -2.247381  10.921310  56.492736
H  -2.705360  11.272746  57.958914
C  -3.721609  13.227069  56.686631
C  -4.784236  14.096958  56.472389
H  -5.636811  13.759579  56.307220
C  -4.576116  15.470907  56.507099
H  -5.287046  16.052284  56.361079
C  -3.304984  15.974968  56.755451
H  -3.165271  16.895732  56.779987
C  -2.241777  15.105413  56.969094
C  -2.449897  13.731464  56.934385
H  -1.737228  13.150422  57.079207
C  -0.926006  15.640601  57.215053
C  32.303158  8.083711  59.322759
H  31.836290  7.246287  59.191700
H  31.664306  8.802649  59.203669
C  31.947017  8.608188  1.750437
C  32.547220  8.968996  2.950908
H  33.465303  8.876284  3.058028
C  31.773873  9.467701  3.992193
H  32.176392  9.709690  4.793504
C  30.399551  9.604929  3.833607
H  29.880701  9.937287  4.530191
C  29.799347  9.244121  2.633136
C  30.572694  8.745415  1.591850
H  30.170561  8.504765  0.789941
C  28.333042  9.368630  2.471557
Mn  28.570148  5.505840  51.524487
Mn  31.487299  4.685152  49.579557
Mn  34.176426  4.683813  47.425173
O  29.716254  7.075924  52.692642
O  30.941396  6.076506  51.254591
O  -3.681608  9.204961  50.889542
O  -1.183402  11.543185  45.975751
O  -0.085605  10.477161  41.204988
O  -0.302614  12.392658  40.117622
O  2.444293  8.538570  50.064892
O  6.416341  5.534624  50.328804
O  7.948734  6.822555  51.256386
O  33.379118  4.387937  50.717790
O  35.070934  4.202177  49.365914
O  -3.035221  5.870330  55.017581
O  -4.011083  11.930435  56.546596
O  -0.026087  14.834305  57.593866
O  -0.618561  16.827118  57.005001
O  32.799978  8.126218  0.795925
O  27.825787  9.180193  1.354270
O  27.632354  9.660489  3.490701
O  26.595621  5.686578  52.142077
O  26.373395  5.509187  51.968530
H  26.071941  6.399493  52.118140
H  26.168561  4.973664  52.734533
H  26.042955  4.615534  51.914670
H  25.948267  6.044709  51.298277
H  26.381125  6.600314  52.309640
H  26.504798  5.187873  52.955956
H  26.214938  4.813008  52.189952
H  26.087400  6.225448  51.543637
C  11.485992  18.141825  12.165687
C  12.514222  19.150281  12.370952
C  12.274025  20.227685  13.230910
H  11.513432  20.220322  13.765915
C  13.123701  21.280321  13.299731
H  12.949206  21.990893  13.873635
C  14.214541  21.288019  12.536720
H  14.790783  22.014322  12.575020
C  14.511744  20.217644  11.668982
C  13.653372  19.151285  11.588791
H  13.836177  18.439710  11.019076
C  16.068292  19.343069  10.065162
H  16.234286  18.509997  10.534339
H  15.382097  19.189441  9.397303
C  17.342710  19.844787  9.408674
C  18.511233  19.915409  10.151936
C  19.605744  20.536615  9.600174
C  19.593956  20.960012  8.274031
C  18.425241  20.839519  7.542738
C  17.238167  20.327761  8.150154
C  15.951382  20.339475  7.355426
H  15.215911  20.548329  7.937110
H  16.010127  21.000176  6.662433
H  15.809158  19.473937  6.961653
C  18.623698  19.310268  11.551687
H  18.249779  18.426322  11.551687
H  19.546419  19.266422  11.809017
H  18.145429  19.858844  12.174065
C  20.817938  21.565152  7.667213
H  21.590898  21.288019  8.164517
H  20.902964  21.274631  6.758183
H  20.746440  22.523068  7.691749
C  20.845958  20.776261  10.411659
H  20.622766  20.816090  11.354202
H  21.248864  21.619374  10.157322
C  22.971405  19.817341  10.800047
C  23.325421  20.900435  11.595972
H  22.719420  21.589251  11.743188
C  24.588051  20.954657  12.174663
H  24.823804  21.679620  12.706677
C  25.497052  19.925784  11.956831
H  26.340738  19.962601  12.341628
C  25.142843  18.842356  11.160906
C  23.880213  18.788134  10.582215
H  23.645040  18.064844  10.049603
C  26.106144  17.755580  10.931703
C  18.388525  21.335547  6.107679
H  17.693248  20.869643  5.621147
H  19.239168  21.150792  5.675007
C  18.266591  23.358148  4.903019
C  18.034896  24.726073  4.954485
H  17.807259  25.123699  5.764773
C  18.138666  25.496221  3.822236
H  18.008229  26.415646  3.867718
C  18.442632  24.890746  2.596631
H  18.477802  25.401501  1.821053
C  18.690946  23.536879  2.546362
C  18.563987  22.780119  3.708533
H  18.686501  21.860359  3.664248
C  19.008826  22.863794  1.249543
C  15.232143  15.505716  10.577427
C  16.171483  15.630560  11.725833
C  17.487640  15.193775  11.629485
H  17.782138  14.771381  10.851513
C  18.363211  15.385558  12.691716
H  19.243032  15.092695  12.628879
C  17.922817  16.014463  13.850894
H  18.508720  16.143657  14.561841
C  16.606659  16.451248  13.947243
C  15.731089  16.259464  12.884413
H  14.852620  16.551993  12.946053
C  15.072913  17.739514  15.122579
H  14.978226  18.235542  14.292543
H  14.328939  17.124333  15.196187
C  15.072720  18.703789  16.309884
C  15.769350  19.886959  16.232685
C  15.589444  20.844540  17.268585
C  14.700153  20.600877  18.275161
C  14.050094  19.367167  18.394250
C  14.287199  18.370092  17.458889
C  13.681778  16.994803  17.589348
H  14.267102  16.347825  17.188992
H  13.561776  16.786284  18.517529
H  12.833262  16.977064  17.141117
C  16.629075  20.214632  15.104027
H  16.168584  20.819437  14.513965
H  17.434306  20.628657  15.423594
H  16.850721  19.410344  14.627669
C  14.412419  21.723131  19.282934
H  14.209130  22.533109  18.810765
H  13.664194  21.475452  19.834097
H  15.184992  21.860359  19.834097
C  16.312548  22.145859  17.186598
H  17.076812  22.077915  16.596537
H  16.618833  22.429351  18.062715
C  15.602584  24.383674  16.790431
C  14.539957  25.253563  16.576190
H  13.687382  24.916184  16.411020
C  14.748077  26.627512  16.610899
H  14.037147  27.208889  16.464880
C  16.019210  27.131573  16.859252
H  16.158922  28.052337  16.883788
C  17.082416  26.262018  17.072895
C  16.874297  24.888069  17.038185
H  17.586966  24.307027  17.183008
C  18.398187  26.797206  17.318854
C  12.979351  19.240316  19.426559
H  12.512483  18.402892  19.295501
H  12.340500  19.959254  19.307470
C  12.623210  19.764793  21.698238
C  13.223413  20.125601  22.898708
H  14.141496  20.032889  23.005829
C  12.450067  20.624306  23.939994
H  12.852586  20.866295  24.741305
C  11.075744  20.761534  23.781407
H  10.556894  21.093893  24.477991
C  10.475540  20.400726  22.580937
C  11.248887  19.902020  21.539651
H  10.846754  19.661370  20.737741
C  9.009235  20.525235  22.419358
Mn  9.245761  16.662779  11.628288
Mn  12.163105  15.841757  9.683956
Mn  14.852426  15.840752  7.529572
O  10.392447  18.232529  12.796443
O  11.617589  17.233111  11.358391
O  15.642585  20.361566  10.993343
O  18.140791  22.699790  6.079552
O  19.238588  21.633766  1.308788
O  19.021579  23.549263  0.221423
O  21.768486  19.695175  10.168692
O  25.740534  16.691229  10.432605
O  27.272927  17.979160  11.360187
O  14.055311  15.544542  10.821591
O  15.747128  15.358782  9.469715
O  16.288973  17.026935  15.121382
O  15.313111  23.087040  16.650396
O  19.298106  25.990910  17.697666
O  18.705632  27.983723  17.108801
O  13.476171  19.282823  20.743726
O  8.501980  20.336798  21.302070
O  8.308547  20.817094  23.438501
O  7.271814  16.843183  12.245878
O  7.049588  16.665792  12.072330
H  6.748134  17.556098  12.221940
H  6.844754  16.130269  12.838333
H  6.719148  15.772139  12.018471
H  6.624460  17.201314  11.402077
H  7.057318  17.756919  12.413441
H  7.180992  16.344478  13.059756
H  6.891132  15.969613  12.293753
H  6.763593  17.382053  11.647438
C  -7.838394  29.298765  32.114086
C  -6.810164  30.307221  32.319351
C  -7.050361  31.384625  33.179309
H  -7.810954  31.377261  33.714314
C  -6.200685  32.437261  33.248130
H  -6.375181  33.147832  33.822033
C  -5.109845  32.444959  32.485119
H  -4.533604  33.171261  32.523419
C  -4.812642  31.374584  31.617381
C  -5.671014  30.308225  31.537190
H  -5.488209  29.596649  30.967475
C  -3.256094  30.500009  30.013561
H  -3.090101  29.666937  30.482738
H  -3.942289  30.346381  29.345702
C  -1.981676  31.001726  29.357073
C  -0.813154  31.072348  30.100335
C  0.281357  31.693554  29.548573
C  0.269570  32.116952  28.222430
C  -0.899146  31.996459  27.491137
C  -2.086219  31.484701  28.098553
C  -3.373004  31.496415  27.303825
H  -4.108476  31.705269  27.885509
H  -3.314259  32.157116  26.610831
H  -3.515229  30.630877  26.910051
C  -0.700688  30.467208  31.500086
H  -1.074608  29.583261  31.500086
H  0.222033  30.423362  31.757415
H  -1.178957  31.015784  32.122464
C  1.493552  32.722092  27.615612
H  2.266512  32.444959  28.112916
H  1.578578  32.431571  26.706582
H  20.746053  0.209858  27.640148
C  1.521572  31.933201  30.360058
H  1.298380  31.973030  31.302601
H  1.924477  32.776314  30.105721
C  3.647019  30.974281  30.748446
C  4.001034  32.057375  31.544371
H  3.395034  32.746190  31.691587
C  5.263664  32.111596  32.123062
H  5.499417  32.836560  32.655075
C  6.172665  31.082724  31.905230
H  7.016351  31.119541  32.290027
C  5.818456  29.999295  31.109305
C  4.555826  29.945074  30.530613
H  4.320653  29.221784  29.998002
C  6.781758  28.912520  30.880102
C  -0.935861  32.492487  26.056078
H  -1.631139  32.026582  25.569546
H  -0.085219  32.307732  25.623405
C  18.266204  1.044938  24.851418
C  18.034509  2.412863  24.902884
H  17.806873  2.810488  25.713171
C  18.138279  3.183011  23.770635
H  18.007842  4.102436  23.816117
C  18.442246  2.577536  22.545030
H  18.477416  3.088291  21.769452
C  18.690559  1.223669  22.494761
C  18.563601  0.466909  23.656932
H  -0.637885  33.017299  23.612647
C  19.008439  0.550584  21.197942
C  -4.092243  26.662656  30.525826
C  -3.152904  26.787500  31.674232
C  -1.836746  26.350714  31.577883
H  -1.542248  25.928321  30.799911
C  -0.961176  26.542498  32.640114
H  -0.081354  26.249634  32.577278
C  -1.401570  27.171402  33.799293
H  -0.815666  27.300597  34.510239
C  -2.717727  27.608188  33.895642
C  -3.593298  27.416404  32.832812
H  -4.471767  27.708933  32.894451
C  -4.251473  28.896454  35.070978
H  -4.346161  29.392481  34.240941
H  -4.995447  28.281272  35.144586
C  -4.251666  29.860729  36.258283
C  -3.555036  31.043899  36.181084
C  -3.734943  32.001480  37.216984
C  -4.624233  31.757817  38.223560
C  -5.274293  30.524107  38.342649
C  -5.037187  29.527031  37.407288
C  -5.642608  28.151743  37.537747
H  -5.057284  27.504765  37.137391
H  -5.762610  27.943224  38.465928
H  -6.491125  28.134004  37.089516
C  -2.695312  31.371571  35.052426
H  -3.155802  31.976377  34.462364
H  -1.890080  31.785597  35.371993
H  -2.473665  30.567284  34.576068
C  -4.911968  32.880071  39.231333
H  14.208744  0.219899  38.759163
H  -5.660193  32.632392  39.782496
H  -4.139394  33.017299  39.782496
C  -3.011839  33.302799  37.134997
H  -2.247574  33.234855  36.544935
H  16.618447  0.116141  38.011113
C  15.602198  2.070463  36.738830
C  14.539571  2.940353  36.524589
H  13.686996  2.602974  36.359419
C  14.747690  4.314302  36.559298
H  14.036760  4.895679  36.413279
C  16.018823  4.818363  36.807651
H  16.158536  5.739127  36.832187
C  17.082030  3.948808  37.021294
C  16.873910  2.574859  36.986584
H  17.586579  1.993817  37.131407
C  18.397801  4.483996  37.267253
C  -6.345035  30.397255  39.374958
H  -6.811903  29.559832  39.243900
H  -6.983887  31.116194  39.255869
C  -6.701177  30.921733  41.646636
C  -6.100973  31.282541  42.847107
H  -5.182890  31.189828  42.954228
C  -6.874320  31.781246  43.888393
H  -6.471801  32.023235  44.689704
C  -8.248643  31.918474  43.729806
H  -8.767492  32.250832  44.426390
C  -8.848846  31.557665  42.529335
C  -8.075500  31.058960  41.488050
H  -8.477632  30.818310  40.686140
C  -10.315151  31.682174  42.367757
Mn  -10.078046  27.819384  31.576687
Mn  -7.160895  26.998696  29.631757
Mn  -4.471380  26.997358  27.477373
O  -8.931939  29.389469  32.744841
O  -7.706798  28.390050  31.306790
O  -3.681802  31.518505  30.941742
O  18.140405  0.386580  26.027951
O  -0.085799  32.790706  21.257187
O  19.021193  1.236053  20.169822
O  2.444100  30.852115  30.117091
O  6.416148  27.848169  30.381003
O  7.948541  29.136100  31.308585
O  -5.269075  26.701481  30.769989
O  -3.577259  26.515722  29.418114
O  -3.035414  28.183874  35.069781
O  15.312724  0.773830  36.598795
O  19.297719  3.677700  37.646065
O  18.705246  5.670513  37.057200
O  -5.848215  30.439762  40.692125
O  -10.822406  31.493737  41.250469
O  -11.015839  31.974034  43.386900
O  -12.052572  28.000123  32.194277
O  -12.274798  27.822731  32.020729
H  -12.576252  28.713037  32.170339
H  -12.479632  27.287209  32.786732
H  -12.605238  26.929078  31.966869
H  -12.699926  28.358254  31.350476
H  -12.267068  28.913858  32.361840
H  -12.143395  27.501418  33.008155
H  -12.433255  27.126552  32.242152
H  -12.560793  28.538993  31.595837
C  9.968479  3.295471  52.061886
C  10.327712  1.900770  52.267151
C  11.380870  1.570085  53.127109
H  11.754789  2.232459  53.662115
C  11.867641  0.307925  53.195930
H  12.570262  0.103757  53.769834
C  -7.995112  32.829531  52.432919
H  -7.654236  31.967340  52.471219
C  -9.070686  33.107333  51.565181
C  9.759006  0.913735  51.484990
H  9.051362  1.111209  50.915275
C  -10.606364  32.196611  49.961362
H  -11.410822  32.469392  50.430539
H  -10.396312  32.867687  49.293503
C  -10.809073  30.842074  49.304873
C  -11.332173  29.794793  50.048136
C  -11.341449  28.536315  49.496374
C  -10.968882  28.334825  48.170231
C  -10.488874  29.407208  47.438937
C  -10.338533  30.691123  48.046354
C  -9.684996  31.799655  47.251626
H  -9.136387  32.332165  47.833309
H  -9.142184  31.418430  46.558632
H  -10.363461  32.355594  46.857852
C  -11.912473  29.999965  51.447887
H  -12.491034  30.765762  51.447887
H  -12.411805  29.222788  51.705216
H  -11.198258  30.139870  52.070264
C  -11.056806  26.972255  47.563413
H  -11.683290  26.441418  48.060716
H  -11.350918  27.043881  46.654382
H  -10.191478  26.555217  47.587949
C  -11.754016  27.342435  50.307859
H  -11.607927  27.515810  51.250402
H  -11.225312  26.571952  50.053522
C  -13.647189  25.981204  50.696246
C  -12.886209  25.133070  51.492171
H  -11.986677  25.313474  51.639388
C  -13.470567  24.012490  52.070863
H  -12.960607  23.445840  52.602876
C  23.831903  23.739708  51.853031
H  23.441944  22.990646  52.237828
C  23.070730  24.588176  51.057105
C  23.655088  25.708757  50.478414
H  23.146287  26.274068  49.945802
C  21.647904  24.297321  50.827903
C  -10.040944  29.190991  46.003878
H  -10.096790  30.026071  45.517346
H  -10.626268  28.546691  45.571206
C  -8.228352  28.285289  44.799218
C  -6.927847  27.801980  44.850684
H  -6.469675  27.800306  45.660972
C  -6.312764  27.327039  43.718436
H  -5.451300  26.980288  43.763917
C  -6.989104  27.366533  42.492831
H  -6.564363  27.080698  41.717252
C  -8.285745  27.828421  42.442562
C  -8.877639  28.316751  43.604732
H  -9.735431  28.670530  43.560448
C  -9.027593  27.889672  41.145742
C  5.812466  1.369264  50.473626
C  5.450914  0.493350  51.622033
C  -14.909432  33.042067  51.525684
H  -15.422484  32.998221  50.747712
C  -15.181128  32.187908  52.587915
H  -15.874666  31.572392  52.525079
C  -14.416284  32.254849  53.747093
H  -14.597350  31.682844  54.458040
C  -13.379938  33.176282  53.843442
C  6.215758  0.560290  52.780613
H  6.908330  1.174802  52.842252
C  7.826606  0.390262  55.018778
H  8.303523  0.224250  54.188742
H  7.665831  1.342153  55.092386
C  -10.662210  33.378442  56.206083
C  -9.985870  32.183557  56.128884
C  -9.066628  31.860570  57.164784
C  -8.833000  32.752550  58.171360
C  9.747605  0.462223  58.290450
C  8.765560  0.755421  57.355088
C  7.877235  1.967375  57.485548
H  7.024274  1.783959  57.085192
H  7.756654  2.175560  58.413728
H  8.286131  2.711082  57.037316
C  -10.131960  31.275177  55.000227
H  -9.377937  31.371571  54.410165
H  -10.176018  30.370814  55.319794
H  -10.939316  31.485370  54.523868
C  -7.717233  32.440608  59.179133
H  -6.914127  32.211672  58.706964
H  -7.557616  33.212430  59.730296
H  -7.984677  31.702926  59.730296
C  -8.301204  30.583684  57.082798
H  -8.742178  29.955784  56.492736
H  -8.208835  30.176687  57.958914
C  -6.008218  30.079624  56.686631
C  -4.723559  30.564941  56.472389
H  -4.589450  31.471982  56.307220
C  -3.637743  29.697729  56.507099
H  -2.778791  30.022724  56.361079
C  -3.836780  28.344866  56.755451
H  -3.109232  27.763489  56.779987
C  -5.121440  27.858879  56.969094
C  -6.207255  28.726091  56.934385
H  -7.066787  28.399422  57.079207
C  -5.315839  26.451794  57.215053
C  10.173120  1.452939  59.322759
H  9.681324  2.275970  59.191700
H  11.115165  1.646731  59.203669
C  10.805401  1.499128  1.750437
C  10.817768  0.798932  2.950908
H  10.278436  0.050205  3.058028
C  11.636333  1.219318  3.992193
H  11.644642  0.749731  4.793504
C  12.442337  2.340902  3.833607
H  12.989593  2.624060  4.530191
C  12.429970  3.041098  2.633136
C  11.611405  2.620713  1.591850
H  11.604062  3.089295  0.789941
C  13.270950  4.248701  2.471557
Mn  9.807510  5.974756  51.524487
Mn  7.637811  3.858774  49.579557
Mn  6.292088  1.530590  47.425173
O  10.593803  4.197157  52.692642
O  9.115711  3.635862  51.254591
O  -9.511466  32.056036  50.889542
O  -8.735607  28.723413  45.975751
O  -10.207710  28.305706  41.204988
O  -8.440337  27.535892  40.117622
O  -13.151528  27.084045  50.064892
O  20.908954  25.146124  50.328804
O  21.258139  23.175066  51.256386
O  6.434506  2.369017  50.717790
O  5.427725  0.996741  49.365914
O  -12.722535  33.163563  55.017581
O  -6.986399  30.978632  56.546596
O  -6.464071  26.075590  57.593866
O  -4.442008  25.592281  57.005001
O  9.961522  1.001427  0.795925
O  13.361387  4.782215  1.354270
O  13.874052  4.709585  3.490701
O  10.950911  7.594377  52.142077
O  10.908398  7.875526  51.968530
H  11.830153  7.691440  52.118140
H  10.547039  8.320679  52.734533
H  10.299692  8.608523  51.914670
H  11.584738  7.975937  51.298277
H  11.849477  7.323269  52.309640
H  10.564431  7.922384  52.955956
H  10.384718  8.360843  52.189952
H  11.671696  7.765075  51.543637
C  29.292672  14.452076  12.165687
C  29.651905  13.057375  12.370952
C  30.705063  12.726690  13.230910
H  -7.569018  13.389064  13.765915
C  31.191835  11.464530  13.299731
H  31.894455  11.260362  13.873635
C  30.653081  10.515986  12.536720
H  30.993957  9.653795  12.575020
C  29.577508  10.793789  11.668982
C  29.083200  12.070340  11.588791
H  28.375555  12.267814  11.019076
C  28.041829  9.883066  10.065162
H  27.237371  10.155848  10.534339
H  28.251881  10.554142  9.397303
C  27.839121  8.528529  9.408674
C  27.316020  7.481248  10.151936
C  27.306744  6.222770  9.600174
C  27.679311  6.021280  8.274031
C  28.159319  7.093664  7.542738
C  28.309660  8.377578  8.150154
C  28.963198  9.486110  7.355426
H  29.511806  10.018620  7.937110
H  29.506009  9.104885  6.662433
H  28.284732  10.042049  6.961653
C  26.735720  7.686420  11.551687
H  26.157160  8.452217  11.551687
H  26.236388  6.909243  11.809017
H  27.449935  7.826325  12.174065
C  27.591387  4.658710  7.667213
H  26.964903  4.127874  8.164517
H  27.297276  4.730336  6.758183
H  28.456716  4.241672  7.691749
C  26.894177  5.028890  10.411659
H  27.040266  5.202265  11.354202
H  27.422882  4.258407  10.157322
C  25.001005  3.667659  10.800047
C  25.761984  2.819525  11.595972
H  26.661516  2.999930  11.743188
C  25.177626  1.698945  12.174663
H  25.687586  1.132295  12.706677
C  23.832096  1.426163  11.956831
H  23.442138  0.677101  12.341628
C  23.070924  2.274631  11.160906
C  23.655281  3.395212  10.582215
H  23.146480  3.960523  10.049603
C  21.648097  1.983776  10.931703
C  28.607250  6.877446  6.107679
H  28.551403  7.712527  5.621147
H  28.021926  6.233146  5.675007
C  30.419841  5.971744  4.903019
C  31.720346  5.488435  4.954485
H  32.178518  5.486762  5.764773
C  32.335429  5.013494  3.822236
H  33.196893  4.666743  3.867718
C  31.659089  5.052989  2.596631
H  32.083830  4.767153  1.821053
C  30.362449  5.514877  2.546362
C  29.770554  6.003206  3.708533
H  28.912762  6.356986  3.664248
C  29.620600  5.576127  1.249543
C  25.136659  12.525869  10.577427
C  24.775107  11.649955  11.725833
C  23.738761  10.728522  11.629485
H  23.225709  10.684676  10.851513
C  23.467066  9.874364  12.691716
H  22.773527  9.258848  12.628879
C  24.231910  9.941304  13.850894
H  24.050844  9.369299  14.561841
C  25.268256  10.862737  13.947243
C  25.539951  11.716895  12.884413
H  26.232523  12.331407  12.946053
C  27.150800  11.546867  15.122579
H  27.627716  11.380855  14.292543
H  26.990024  12.498758  15.196187
C  27.985983  11.064897  16.309884
C  28.662323  9.870012  16.232685
C  29.581566  9.547026  17.268585
C  29.815193  10.439005  18.275161
C  29.071799  11.618828  18.394250
C  28.089753  11.912026  17.458889
C  27.201429  13.123980  17.589348
H  26.348467  12.940564  17.188992
H  27.080847  13.332165  18.517529
H  27.610324  13.867687  17.141117
C  28.516234  8.961633  15.104027
H  29.270256  9.058027  14.513965
H  28.472175  8.057269  15.423594
H  27.708877  9.171825  14.627669
C  30.930961  10.127063  19.282934
H  31.734066  9.898127  18.810765
H  31.090577  10.898885  19.834097
H  30.663516  9.389381  19.834097
C  30.346989  8.270139  17.186598
H  29.906016  7.642239  16.596537
H  30.439358  7.863142  18.062715
C  32.639975  7.766079  16.790431
C  -4.723365  8.251396  16.576190
H  -4.589257  9.158437  16.411020
C  -3.637550  7.384184  16.610899
H  -2.778598  7.709180  16.464880
C  34.811413  6.031321  16.859252
H  -3.109038  5.449944  16.883788
C  33.526754  5.545334  17.072895
C  32.440938  6.412546  17.038185
H  31.581406  6.085877  17.183008
C  33.332354  4.138249  17.318854
C  29.497313  12.609544  19.426559
H  29.005517  13.432575  19.295501
H  30.439358  12.803336  19.307470
C  30.129594  12.655733  21.698238
C  30.141962  11.955538  22.898708
H  29.602629  11.206810  23.005829
C  30.960526  12.375923  23.939994
H  30.968836  11.906336  24.741305
C  -6.881470  13.497507  23.781407
H  -6.334214  13.780665  24.477991
C  -6.893837  14.197703  22.580937
C  -7.712402  13.777318  21.539651
H  -7.719745  14.245900  20.737741
C  -6.052857  15.405306  22.419358
Mn  -9.516877  17.131696  11.628288
Mn  26.961811  15.015713  9.683956
Mn  25.616281  12.687195  7.529572
O  -8.730003  15.353762  12.796443
O  28.439904  14.792467  11.358391
O  29.136727  9.742491  10.993343
O  29.912586  6.409868  6.079552
O  28.440483  5.992161  1.308788
O  30.207857  5.222347  0.221423
O  25.496665  4.770500  10.168692
O  20.909148  2.832579  10.432605
O  21.258332  0.861522  11.360187
O  25.758699  13.525622  10.821591
O  24.751918  12.153346  9.469715
O  25.925658  10.850018  15.121382
O  31.661794  8.665087  16.650396
O  32.184122  3.762045  17.697666
O  34.206185  3.278736  17.108801
O  29.285715  12.158032  20.743726
O  -5.962420  15.938820  21.302070
O  -5.449754  15.866190  23.438501
O  -8.372896  18.750982  12.245878
O  -8.415409  19.032131  12.072330
H  -7.493654  18.848045  12.221940
H  -8.776768  19.477284  12.838333
H  -9.024115  19.765128  12.018471
H  -7.739069  19.132542  11.402077
H  -7.474330  18.479874  12.413441
H  -8.759376  19.078989  13.059756
H  -8.939089  19.517448  12.293753
H  -7.652111  18.921680  11.647438
C  9.968285  25.609016  32.114086
C  10.327519  24.214315  32.319351
C  11.380677  23.883629  33.179309
H  11.754596  24.546004  33.714314
C  11.867448  22.621470  33.248130
H  12.570069  22.417302  33.822033
C  11.328695  21.672926  32.485119
H  11.669570  20.810735  32.523419
C  10.253121  21.950728  31.617381
C  9.758813  23.227280  31.537190
H  9.051168  23.424754  30.967475
C  8.717443  21.040006  30.013561
H  7.912985  21.312787  30.482738
H  8.927495  21.711082  29.345702
C  8.514734  19.685469  29.357073
C  7.991633  18.638188  30.100335
C  7.982358  17.379710  29.548573
C  8.354925  17.178220  28.222430
C  8.834933  18.250603  27.491137
C  8.985274  19.534518  28.098553
C  9.638811  20.643050  27.303825
H  10.187420  21.175560  27.885509
H  10.181622  20.261825  26.610831
H  8.960346  21.198989  26.910051
C  7.411334  18.843360  31.500086
H  6.832773  19.609157  31.500086
H  6.912002  18.066183  31.757415
H  8.125549  18.983265  32.122464
C  8.267000  15.815650  27.615612
H  7.640516  15.284813  28.112916
H  7.972889  15.887276  26.706582
H  9.132329  15.398612  27.640148
C  7.569791  16.185830  30.360058
H  7.715880  16.359205  31.302601
H  8.098495  15.415347  30.105721
C  5.676618  14.824599  30.748446
C  6.437597  13.976465  31.544371
H  7.337130  14.156869  31.691587
C  5.853240  12.855885  32.123062
H  6.363200  12.289235  32.655075
C  4.507709  12.583103  31.905230
H  4.117751  11.834041  32.290027
C  3.746537  13.431571  31.109305
C  4.330895  14.552152  30.530613
H  3.822094  15.117463  29.998002
C  2.323711  13.140716  30.880102
C  9.282863  18.034386  26.056078
H  9.227017  18.869466  25.569546
H  8.697539  17.390086  25.623405
C  11.095454  17.128684  24.851418
C  12.395960  16.645375  24.902884
H  12.854132  16.643701  25.713171
C  13.011042  16.170433  23.770635
H  13.872506  15.823683  23.816117
C  12.334702  16.209928  22.545030
H  12.759444  15.924093  21.769452
C  11.038062  16.671816  22.494761
C  10.446168  17.160146  23.656932
H  9.588376  17.513925  23.612647
C  10.296214  16.733067  21.197942
C  5.812273  23.682809  30.525826
C  5.450721  22.806895  31.674232
C  4.414375  21.885462  31.577883
H  3.901322  21.841616  30.799911
C  4.142679  21.031303  32.640114
H  3.449141  20.415787  32.577278
C  4.907523  21.098244  33.799293
H  4.726457  20.526239  34.510239
C  5.943869  22.019677  33.895642
C  6.215565  22.873835  32.832812
H  6.908137  23.488347  32.894451
C  7.826413  22.703807  35.070978
H  8.303330  22.537795  34.240941
H  7.665638  23.655698  35.144586
C  8.661597  22.221837  36.258283
C  9.337937  21.026952  36.181084
C  10.257179  20.703965  37.216984
C  10.490806  21.595945  38.223560
C  9.747412  22.775768  38.342649
C  8.765366  23.068966  37.407288
C  7.877042  24.280920  37.537747
H  7.024081  24.097504  37.137391
H  7.756460  24.489105  38.465928
H  8.285938  25.024627  37.089516
C  9.191847  20.118572  35.052426
H  9.945870  20.214966  34.462364
H  9.147788  19.214209  35.371993
H  8.384490  20.328765  34.576068
C  11.606574  21.284003  39.231333
H  12.409680  21.055067  38.759163
H  11.766190  22.055825  39.782496
H  11.339130  20.546321  39.782496
C  11.022603  19.427079  37.134997
H  10.581629  18.799179  36.544935
H  11.114972  19.020082  38.011113
C  13.315589  18.923019  36.738830
C  14.600248  19.408336  36.524589
H  14.734357  20.315377  36.359419
C  15.686064  18.541124  36.559298
H  16.545016  18.866119  36.413279
C  15.487027  17.188261  36.807651
H  16.214575  16.606884  36.832187
C  14.202367  16.702274  37.021294
C  13.116551  17.569486  36.986584
H  12.257020  17.242817  37.131407
C  14.007968  15.295189  37.267253
C  10.172927  23.766484  39.374958
H  9.681131  24.589515  39.243900
H  11.114972  23.960276  39.255869
C  10.805208  23.812673  41.646636
C  10.817575  23.112477  42.847107
H  10.278242  22.363750  42.954228
C  11.636140  23.532862  43.888393
H  11.644449  23.063276  44.689704
C  12.442144  24.654447  43.729806
H  12.989400  24.937605  44.426390
C  12.429777  25.354643  42.529335
C  11.611212  24.934258  41.488050
H  11.603869  25.402840  40.686140
C  13.270757  26.562246  42.367757
Mn  9.807316  28.288301  31.576687
Mn  7.638004  26.172318  29.631757
Mn  6.292088  23.843800  27.477373
O  10.593610  26.510702  32.744841
O  9.115517  25.949407  31.306790
O  9.812341  20.899431  30.941742
O  10.588199  17.566808  26.027951
O  9.116097  17.149101  21.257187
O  10.883470  16.379287  20.169822
O  6.172279  15.927440  30.117091
O  1.584761  13.989519  30.381003
O  1.933946  12.018461  31.308585
O  6.434312  24.682562  30.769989
O  5.427532  23.310286  29.418114
O  6.601272  22.006958  35.069781
O  12.337408  19.822027  36.598795
O  12.859736  14.918985  37.646065
O  14.881799  14.435676  37.057200
O  9.961329  23.314972  40.692125
O  13.361193  27.095760  41.250469
O  13.873859  27.023130  43.386900
O  10.950718  29.907922  32.194277
O  10.908205  30.189071  32.020729
H  11.829960  30.004985  32.170339
H  10.546846  30.634224  32.786732
H  10.299499  30.922067  31.966869
H  11.584545  30.289481  31.350476
H  11.849284  29.636814  32.361840
H  10.564238  30.235929  33.008155
H  10.384524  30.674388  32.242152
H  11.671503  30.078620  31.595837
