147
graphite_tip3p_n17
O  -3.814643  2.714665  3.941607
H  -3.721648  2.446945  4.855888
H  -2.989156  2.457310  3.531032
O  -8.485393  10.402448  3.061733
H  -8.610172  11.054453  2.372130
H  -9.372819  10.152992  3.319565
O  -9.044935  1.597550  3.353659
H  -8.107110  1.775863  3.283505
H  -9.097437  0.661632  3.547393
O  -11.008039  9.490807  3.440968
H  -11.921921  9.546241  3.720214
H  -10.821897  8.552272  3.413834
O  -6.462519  2.385001  3.200632
H  -6.671830  3.318227  3.161782
H  -5.523371  2.357103  3.383538
O  -7.572525  7.784386  3.217755
H  -7.912859  8.676828  3.154904
H  -6.621905  7.891760  3.249780
O  -4.512832  5.309398  3.339672
H  -5.459715  5.203678  3.247651
H  -4.191797  4.430666  3.542153
O  -1.869192  6.244478  3.287985
H  -1.953562  7.196992  3.330761
H  -2.770947  5.923431  3.288113
O  -1.333023  2.048213  3.129879
H  -0.752755  1.418896  2.701531
H  -0.819102  2.854313  3.178052
O  -4.845884  8.044572  3.269574
H  -3.962400  8.404388  3.190705
H  -4.714822  7.098630  3.334759
O  -3.152540  11.517884  3.441147
H  -3.106909  12.435200  3.710743
H  -4.089424  11.325888  3.400925
O  -7.264619  5.048862  3.172979
H  -7.370829  6.000041  3.187451
H  -8.158617  4.707955  3.145036
O  -5.726661  10.689201  3.368054
H  -6.683737  10.696338  3.381758
H  -5.493518  9.760834  3.371370
O  0.061628  4.358957  3.212330
H  0.862906  4.844886  3.407418
H  -0.629079  5.021585  3.221263
O  -2.260204  8.988863  3.060551
H  -1.650062  9.113231  2.333577
H  -2.497301  9.876413  3.329385
O  -9.888773  4.155593  3.058533
H  -10.528473  4.062607  2.352579
H  -9.666274  3.256664  3.300717
O  -10.200776  6.907727  3.398470
H  -9.274162  7.146404  3.372938
H  -10.201738  5.950651  3.413828
C  -14.757073  5.680000  0.000000
C  -14.757073  7.100000  0.000000
C  -13.527317  7.810000  0.000000
C  -13.527317  9.230000  0.000000
C  -12.297561  9.940000  0.000000
C  -12.297561  11.360000  0.000000
C  -11.067805  12.070000  0.000000
C  -11.067805  13.490000  0.000000
C  -9.838049  14.200000  0.000000
C  -13.527317  3.550000  0.000000
C  -13.527317  4.970000  0.000000
C  -12.297561  5.680000  0.000000
C  -12.297561  7.100000  0.000000
C  -11.067805  7.810000  0.000000
C  -11.067805  9.230000  0.000000
C  -9.838049  9.940000  0.000000
C  -9.838049  11.360000  0.000000
C  -8.608293  12.070000  0.000000
C  -8.608293  13.490000  0.000000
C  -7.378536  14.200000  0.000000
C  -12.297561  1.420000  0.000000
C  -12.297561  2.840000  0.000000
C  -11.067805  3.550000  0.000000
C  -11.067805  4.970000  0.000000
C  -9.838049  5.680000  0.000000
C  -9.838049  7.100000  0.000000
C  -8.608293  7.810000  0.000000
C  -8.608293  9.230000  0.000000
C  -7.378536  9.940000  0.000000
C  -7.378536  11.360000  0.000000
C  -6.148780  12.070000  0.000000
C  -6.148780  13.490000  0.000000
C  -4.919024  14.200000  0.000000
C  -11.067805  -0.710000  0.000000
C  -11.067805  0.710000  0.000000
C  -9.838049  1.420000  0.000000
C  -9.838049  2.840000  0.000000
C  -8.608293  3.550000  0.000000
C  -8.608293  4.970000  0.000000
C  -7.378536  5.680000  0.000000
C  -7.378536  7.100000  0.000000
C  -6.148780  7.810000  0.000000
C  -6.148780  9.230000  0.000000
C  -4.919024  9.940000  0.000000
C  -4.919024  11.360000  0.000000
C  -3.689268  12.070000  0.000000
C  -3.689268  13.490000  0.000000
C  -2.459512  14.200000  0.000000
C  -9.838049  -1.420000  0.000000
C  -8.608293  -0.710000  0.000000
C  -8.608293  0.710000  0.000000
C  -7.378536  1.420000  0.000000
C  -7.378536  2.840000  0.000000
C  -6.148780  3.550000  0.000000
C  -6.148780  4.970000  0.000000
C  -4.919024  5.680000  0.000000
C  -4.919024  7.100000  0.000000
C  -3.689268  7.810000  0.000000
C  -3.689268  9.230000  0.000000
C  -2.459512  9.940000  0.000000
C  -2.459512  11.360000  0.000000
C  -1.229756  12.070000  0.000000
C  -1.229756  13.490000  0.000000
C  -7.378536  -1.420000  0.000000
C  -6.148780  -0.710000  0.000000
C  -6.148780  0.710000  0.000000
C  -4.919024  1.420000  0.000000
C  -4.919024  2.840000  0.000000
C  -3.689268  3.550000  0.000000
C  -3.689268  4.970000  0.000000
C  -2.459512  5.680000  0.000000
C  -2.459512  7.100000  0.000000
C  -1.229756  7.810000  0.000000
C  -1.229756  9.230000  0.000000
C  0.000000  9.940000  0.000000
C  0.000000  11.360000  0.000000
C  -4.919024  -1.420000  0.000000
C  -3.689268  -0.710000  0.000000
C  -3.689268  0.710000  0.000000
C  -2.459512  1.420000  0.000000
C  -2.459512  2.840000  0.000000
C  -1.229756  3.550000  0.000000
C  -1.229756  4.970000  0.000000
C  0.000000  5.680000  0.000000
C  0.000000  7.100000  0.000000
C  1.229756  7.810000  0.000000
C  1.229756  9.230000  0.000000
C  -2.459512  -1.420000  0.000000
C  -1.229756  -0.710000  0.000000
C  -1.229756  0.710000  0.000000
C  0.000000  1.420000  0.000000
C  0.000000  2.840000  0.000000
C  1.229756  3.550000  0.000000
C  1.229756  4.970000  0.000000
C  2.459512  5.680000  0.000000
C  2.459512  7.100000  0.000000
