116
qmof-22103d2
K  6.150824  12.651867  4.286380
K  4.128224  0.184595  12.203302
K  0.527377  0.184852  11.547465
K  2.550059  12.651867  3.630701
H  3.881106  8.930156  3.353133
H  6.398000  3.906434  11.269897
H  2.797239  3.906563  12.480870
H  0.280283  8.930028  4.563947
H  3.021176  6.766036  2.569358
H  0.056399  6.070554  10.486280
H  3.657312  6.070683  13.264487
H  6.621818  6.765781  5.347564
H  1.942936  5.724991  6.634381
H  1.134462  7.111602  14.551303
H  4.735342  7.111600  9.199464
H  5.543672  5.724989  1.282541
H  2.800908  7.915939  7.417523
H  0.276564  4.920783  15.334604
H  3.877365  4.920780  8.416163
H  6.401642  7.915808  0.499399
H  1.476136  5.099077  2.226239
H  1.601580  7.737512  10.143161
H  5.202281  7.737642  13.607606
H  5.076775  5.098950  5.690525
H  1.631847  3.425957  2.876693
H  1.446014  9.410761  10.793615
H  5.046641  9.410762  12.956993
H  5.232342  3.425701  5.040071
H  3.103487  4.402564  2.551307
H  -0.025701  8.434154  10.468230
H  3.575074  8.434155  13.282379
H  6.703985  4.402309  5.365457
C  3.869244  10.244367  7.336929
C  6.409895  2.592355  15.253693
C  2.808957  2.592352  8.497074
C  0.268383  10.244236  0.580152
C  3.965198  9.837190  5.868498
C  6.313932  2.999402  13.785262
C  2.713003  2.999529  9.965505
C  0.364351  9.837060  2.048583
C  4.975357  9.976982  8.154113
C  5.303719  2.859606  0.237033
C  1.702916  2.859738  7.679890
C  1.374631  9.976985  15.596812
C  2.697520  10.943063  7.687015
C  0.380104  1.893531  15.603937
C  3.980686  1.893528  8.146830
C  6.298179  10.942931  0.229907
C  1.698917  11.192991  6.720359
C  1.378693  1.643731  14.637281
C  4.979212  1.643729  9.113644
C  5.299447  11.192732  1.196564
C  2.399785  11.436630  8.971456
C  0.677775  1.399958  1.054692
C  4.278565  1.399961  6.862388
C  6.000503  11.436633  14.779311
C  5.167949  10.557709  9.427629
C  5.111216  2.278751  1.510707
C  1.510401  2.278882  6.406215
C  1.567062  10.557840  14.323138
C  6.017157  9.119498  7.717733
C  4.262001  3.716840  15.634655
C  0.661121  3.717093  8.116112
C  2.416288  9.119494  0.199348
C  3.433386  8.561234  5.439559
C  6.845590  4.275487  13.356481
C  3.244814  4.275486  10.394286
C  -0.167462  8.561232  2.477522
C  3.469286  8.219266  4.070090
C  6.809827  4.617324  11.987012
C  3.209131  4.617453  11.763755
C  -0.131683  8.219010  3.846833
C  2.989097  6.998379  3.631492
C  0.088561  5.838212  11.548415
C  3.689392  5.838340  12.202194
C  6.589578  6.998251  4.285272
C  2.465999  6.086468  4.569964
C  0.611590  6.750251  12.486887
C  4.212490  6.750251  11.263722
C  6.066549  6.086211  3.346800
C  2.402659  6.424970  5.937533
C  0.674799  6.411751  13.854614
C  4.275613  6.411750  9.896153
C  6.003340  6.424711  1.979231
C  2.876164  7.649066  6.363306
C  0.201298  5.187655  14.280386
C  3.802037  5.187653  9.470381
C  6.476908  7.648936  1.553459
C  2.057065  4.433629  2.881760
C  1.020652  8.403089  10.798840
C  4.621418  8.403219  12.951927
C  5.657637  4.433245  5.035004
N  -0.322660  8.388839  7.405806
N  3.400209  4.447755  15.322728
N  7.000794  4.447752  8.427881
N  3.278218  8.388708  0.511117
N  5.382469  11.065140  10.461105
N  4.896562  1.771321  2.544182
N  1.295881  1.771451  5.372899
N  1.781577  11.065141  13.289821
N  2.083510  11.842652  10.023932
N  0.994060  0.993938  2.107168
N  4.594840  0.993939  5.809913
N  5.684146  11.842653  13.726677
N  0.869594  11.433034  5.928666
N  2.208080  1.403686  13.845589
N  5.808463  1.403685  9.905337
N  4.470270  11.432904  1.988414
O  4.482812  10.675162  5.109265
O  5.796454  2.161430  13.026187
O  2.195394  2.161429  10.724580
O  0.881824  10.675161  2.807816
O  1.979358  4.868405  4.252654
O  1.098300  7.968315  12.169576
O  4.699131  7.968315  11.581032
O  5.579911  4.868148  3.664110
