448
COD_100010
C  1.210111  2.720551  11.353992
C  10.006423  19.388551  6.364104
C  10.158912  30.615449  0.458072
C  1.362599  13.947449  5.447960
C  1.730551  3.975985  0.117648
C  9.790960  20.643985  5.788384
C  9.638471  29.360015  11.694415
C  1.578063  12.692015  6.023680
C  2.986190  4.281342  0.678957
C  8.535321  20.949342  5.227074
C  8.382832  29.054658  11.133106
C  2.833701  12.386658  6.584989
C  4.024115  3.328266  0.670335
C  7.497397  19.996266  5.235697
C  7.344908  30.007734  11.141729
C  3.871626  13.339734  6.576366
C  3.790323  2.058831  0.126271
C  7.731188  18.726831  5.779761
C  7.578700  31.277169  11.685793
C  3.637834  14.609169  6.032303
C  2.235339  1.774142  11.384939
C  8.981194  18.442142  6.333156
C  9.133683  31.561858  0.427124
C  2.387828  14.893858  5.478908
H  2.078304  0.910073  11.019474
H  9.138230  17.578073  6.698621
H  9.290718  32.425927  0.792589
H  2.230793  15.757927  5.113442
C  -0.065435  2.350855  10.663931
C  11.281969  19.018855  7.054164
C  11.434458  30.985145  1.148133
C  0.087054  14.317145  4.757899
C  -0.038438  1.951489  9.328932
C  11.254972  18.619489  8.389164
C  11.407460  31.384511  2.483132
C  0.114051  14.716511  3.422900
H  0.791361  1.930154  8.867316
H  10.425173  18.598154  8.850779
H  10.577662  31.405846  2.944747
H  0.943850  14.737846  2.961284
C  10.478850  1.587127  8.661786
C  0.737684  18.255127  9.056309
C  0.890173  31.748873  3.150277
C  10.631338  15.080873  2.755754
H  10.515560  1.336774  7.746351
H  0.700973  18.004774  9.971744
H  0.853462  31.999226  4.065712
H  10.668049  15.331226  1.840319
C  9.269089  1.590461  9.330349
C  1.947445  18.258461  8.387746
C  2.099934  31.745539  2.481715
C  9.421578  15.077539  3.424317
H  8.473746  1.336774  8.877947
H  2.742788  18.004774  8.840148
H  2.895277  31.999226  2.934117
H  8.626235  15.331226  2.971915
C  9.219750  1.965157  10.658025
C  1.996784  18.633157  7.060070
C  2.149273  31.370843  1.154039
C  9.372239  14.702843  4.751993
H  8.390148  1.953490  11.121058
H  2.826386  18.621490  6.597037
H  2.978875  31.382510  0.691006
H  8.542637  14.714510  5.215026
C  10.377279  2.359189  11.320682
C  0.839255  19.027189  6.397414
C  0.991744  30.976811  0.491382
C  10.529767  14.308811  5.414650
H  10.634755  2.636878  0.416966
H  0.886756  19.304878  5.489066
H  0.734268  30.699122  11.395098
H  10.482266  14.031122  6.322998
C  0.670917  5.033403  0.062840
C  10.850595  21.701403  5.843192
C  10.698106  28.302597  11.749223
C  0.518428  11.634597  5.968872
C  -0.014090  5.559778  10.651174
C  11.230624  22.227778  7.066921
C  11.383113  27.776222  1.160890
C  0.138398  11.108222  4.745142
H  0.400408  5.243753  9.857167
H  10.816126  21.911753  7.860928
H  10.968615  28.092247  1.954897
H  0.552896  11.424247  3.951135
C  10.684931  6.539856  10.568489
C  0.531603  23.207856  7.149606
C  0.684092  26.796144  1.243574
C  10.837419  10.128144  4.662458
H  10.433018  6.890551  9.722509
H  0.783516  23.558551  7.995586
H  0.936005  26.445449  2.089554
H  10.585507  9.777449  3.816478
C  10.079385  7.007227  11.722056
C  1.137149  23.675227  5.996040
C  1.289638  26.328773  0.090008
C  10.231874  9.660773  5.816024
H  9.412618  7.683948  11.670319
H  1.803916  24.351948  6.047777
H  1.956405  25.652052  0.141745
H  9.565106  8.984052  5.764287
C  10.750208  6.490853  1.131478
C  0.771304  23.158853  4.774554
C  0.618815  26.845147  10.680586
C  10.597719  10.177147  7.037509
H  10.336677  6.813878  1.924185
H  1.184834  23.481878  3.981847
H  1.032346  26.522122  9.887878
H  10.184188  9.854122  7.830217
C  0.046489  5.502107  1.210737
C  11.475023  22.170107  4.695295
C  11.322534  27.833893  10.601327
C  -0.106000  11.165893  7.116768
H  0.285419  5.143745  2.057661
H  11.236092  21.811745  3.848370
H  11.083604  28.192255  9.754402
H  0.132930  11.524255  7.963693
C  3.293153  5.653786  1.187821
C  8.228359  22.321786  4.718211
C  8.075870  27.682214  10.624242
C  3.140664  11.014214  7.093853
C  3.036863  6.022815  2.505339
C  8.484649  22.690815  3.400693
C  8.332160  27.313185  9.306725
C  2.884374  10.645185  8.411370
H  2.626099  5.400432  3.095942
H  8.895413  22.068432  2.810090
H  8.742924  27.935568  8.716122
H  2.473610  11.267568  9.001974
C  3.374168  7.286250  2.964828
C  8.147343  23.954250  2.941204
C  7.994854  26.049750  8.847236
C  3.221680  9.381750  8.870860
H  3.192249  7.527269  3.866088
H  8.329262  24.195269  2.039943
H  8.176774  25.808731  7.945975
H  3.039760  9.140731  9.772120
C  3.975446  8.197656  2.116722
C  7.546065  24.865656  3.789310
C  7.393576  25.138344  9.695342
C  3.822958  8.470344  8.022754
H  4.206387  9.064058  2.432104
H  7.315124  25.732058  3.473928
H  7.162636  24.271942  9.379960
H  4.053898  7.603942  8.338136
C  4.237723  7.844961  0.811489
C  7.283788  24.512961  5.094543
C  7.131299  25.491039  11.000575
C  4.085234  8.823039  6.717521
H  4.657846  8.467344  0.229154
H  6.863665  25.135344  5.676878
H  6.711176  24.868656  11.582909
H  4.505358  8.200656  6.135186
C  3.890153  6.587194  0.347157
C  7.631359  23.255194  5.558875
C  7.478870  26.748806  11.464907
C  3.737664  10.080806  6.253188
H  3.756824  6.360509  11.253353
H  7.459710  23.028509  6.464742
H  7.612199  26.975491  0.558711
H  3.909312  10.307491  5.347321
C  5.390121  3.726965  1.148369
C  6.131390  20.394965  4.757663
C  5.978901  29.609035  10.663695
C  5.237633  12.941035  7.054401
C  5.664747  3.895645  2.502740
C  5.856764  20.563645  3.403292
C  5.704275  29.440355  9.309324
C  5.512258  12.772355  8.408772
H  4.973718  3.766968  3.142009
H  6.547793  20.434968  2.764023
H  6.395305  29.569032  8.670055
H  4.821229  12.901032  9.048041
C  6.931607  4.247673  2.927856
C  4.589904  20.915673  2.978176
C  4.437416  29.088327  8.884207
C  6.779118  12.420327  8.833888
H  7.112622  4.333680  3.856639
H  4.408889  21.001680  2.049393
H  4.256400  29.002320  7.955425
H  6.960133  12.334320  9.762671
C  7.933382  4.475358  2.008878
C  3.588129  21.143358  3.897154
C  3.435641  28.860642  9.803186
C  7.780893  12.192642  7.914909
H  8.803461  4.717044  2.302171
H  2.718051  21.385044  3.603861
H  2.565562  28.618956  9.509892
H  8.650972  11.950956  8.208203
C  7.668988  4.349348  0.665137
C  3.852523  21.017348  5.240894
C  3.700034  28.986652  11.146926
C  7.516500  12.318652  6.571169
H  8.353152  4.523695  0.029530
H  3.168359  21.191695  5.876502
H  3.015871  28.812305  11.782533
H  8.200663  12.144305  5.935562
C  6.404542  3.968651  0.232461
C  5.116970  20.636651  5.673570
C  4.964481  29.367349  11.579602
C  6.252053  12.699349  6.138493
H  5.928254  3.873643  11.115152
H  5.288280  20.541643  6.602944
H  5.440769  29.462357  0.696912
H  6.080743  12.794357  5.209120
C  4.845677  1.002080  0.075597
C  6.675835  17.670080  5.830435
C  6.523346  32.333920  11.736466
C  4.693188  15.665920  5.981629
C  5.576829  0.637051  1.201051
C  5.944682  17.305051  4.704981
C  5.792193  32.698949  10.611013
C  5.424341  16.030949  7.107082
H  5.409839  1.066752  2.030494
H  6.111672  17.734752  3.875538
H  5.959184  32.269248  9.781570
H  5.257350  15.601248  7.936525
C  4.818673  0.353028  10.688854
C  6.397861  17.021028  7.029241
C  6.550349  32.982972  1.123209
C  4.971162  16.314972  4.782823
H  4.333234  0.590047  9.907959
H  6.883299  17.258047  7.810136
H  7.035788  32.745953  1.904105
H  4.485723  16.077953  4.001927
C  9.716777  3.071579  5.378977
C  1.804734  19.739579  0.527054
C  1.652245  30.264421  6.433086
C  9.564288  13.596421  11.285009
C  9.431164  4.302011  5.982928
C  1.785370  20.970011  11.735167
C  1.937859  29.033989  5.829135
C  9.583653  12.365989  0.076897
C  8.171230  4.512028  6.587233
C  3.045304  21.180028  11.130862
C  3.197793  28.823972  5.224830
C  8.323718  12.155972  0.681202
C  7.184352  3.506280  6.535851
C  4.032182  20.174280  11.182244
C  4.184670  29.829720  5.276213
C  7.336841  13.161720  0.629819
C  7.491674  2.265515  5.968281
C  3.724860  18.933515  11.749814
C  3.877349  31.070485  5.843782
C  7.644162  14.402485  0.062250
C  8.750357  2.067499  5.407917
C  2.771155  18.735499  0.498115
C  2.618666  31.268501  6.404146
C  8.597868  14.600501  11.313949
H  8.958258  1.220098  5.033120
H  2.563253  17.888098  0.872911
H  2.410764  32.115902  6.778943
H  8.805769  15.447902  10.939152
C  11.026307  2.758554  4.725652
C  0.495204  19.426554  1.180380
C  0.342715  30.577446  7.086411
C  10.873819  13.909446  10.631684
C  11.047608  2.172840  3.466604
C  0.473903  18.840840  2.439427
C  0.321415  31.163160  8.345459
C  10.895119  14.495160  9.372636
H  10.229114  2.003494  3.015620
H  1.292397  18.671494  2.890412
H  1.139909  31.332506  8.796444
H  10.076625  14.664506  8.921652
C  0.569286  1.835147  2.859701
C  10.952226  18.503147  3.046331
C  10.799737  31.500853  8.952363
C  0.416797  14.832853  8.765732
H  0.566013  1.440115  1.996239
H  10.955498  18.108115  3.909793
H  10.803009  31.895885  9.815825
H  0.413525  15.227885  7.902270
C  1.765040  2.071499  3.502277
C  9.756472  18.739499  2.403755
C  9.603983  31.264501  8.309787
C  1.612551  14.596501  9.408309
H  2.585575  1.840147  3.082949
H  8.935936  18.508147  2.823083
H  8.783447  31.495853  8.729115
H  2.433086  14.827853  8.988980
C  1.766536  2.641545  4.755537
C  9.754975  19.309545  1.150495
C  9.602486  30.694455  7.056527
C  1.614047  14.026455  10.661569
H  2.590522  2.810225  5.197308
H  8.930990  19.478225  0.708724
H  8.778501  30.525775  6.614756
H  2.438033  13.857775  11.103340
C  0.570923  2.972571  5.378033
C  10.950588  19.640571  0.527999
C  10.798100  30.363429  6.434031
C  0.418434  13.695429  11.284064
H  0.579905  3.346934  6.250944
H  10.636629  20.014934  11.467151
H  10.789118  29.989066  5.561120
H  0.732394  13.321066  0.344912
C  10.461323  5.393098  5.976668
C  0.755211  22.061098  11.741427
C  0.907700  27.942902  5.835396
C  10.613811  11.274902  0.070636
C  10.889014  5.932808  4.771129
C  0.632497  22.600808  1.134903
C  0.480008  27.403192  7.040935
C  10.736526  10.735192  10.677160
H  10.493155  5.643785  3.957041
H  1.028356  22.311785  1.948990
H  0.875868  27.692215  7.855022
H  10.340666  11.024215  9.863073
C  0.217091  6.888884  4.749276
C  11.304420  23.556884  1.156755
C  11.151931  26.447116  7.062787
C  0.064602  9.779116  10.655308
H  0.501126  7.257247  3.921605
H  11.020385  23.925247  1.984427
H  10.867897  26.078753  7.890458
H  0.348637  9.410753  9.827637
C  0.803621  7.306918  5.923750
C  10.412912  23.974918  11.794345
C  10.565401  26.029082  5.888314
C  0.956110  9.361082  0.017718
H  1.495972  7.957303  5.902488
H  10.025540  24.625303  0.003544
H  9.873051  25.378697  5.909575
H  1.343483  8.710697  11.808520
C  0.387026  6.782876  7.129053
C  10.829508  23.450876  10.589042
C  10.981997  26.553124  4.683011
C  0.539515  9.885124  1.223021
H  0.784949  7.077233  7.940069
H  10.431584  23.745233  9.778026
H  10.584073  26.258767  3.871994
H  0.937438  9.590767  2.034037
C  11.056240  5.822799  7.151850
C  0.160294  22.490799  10.566245
C  0.312783  27.513201  4.660213
C  11.208729  10.845201  1.245818
H  10.774461  5.457103  7.982593
H  0.442073  22.125103  9.735503
H  0.594562  27.878897  3.829471
H  10.926949  11.210897  2.076561
C  7.865653  5.779796  7.317810
C  3.350880  22.447796  10.400286
C  3.503369  27.556204  4.494254
C  8.018142  10.888204  1.411778
C  7.765877  7.009227  6.678895
C  3.450657  23.677227  11.039200
C  3.603146  26.326773  5.133168
C  7.918365  9.658773  0.772863
H  7.928930  7.063898  5.744206
H  3.592581  23.731898  0.161825
H  3.440092  26.272102  6.067857
H  7.776441  9.604102  11.650238
C  7.433303  8.157653  7.378996
C  3.783231  24.825653  10.339099
C  3.935720  25.178347  4.433067
C  7.585792  8.510347  1.472964
H  7.371904  8.990719  6.926594
H  3.844629  25.658719  10.791501
H  3.997118  24.345281  4.885469
H  7.524393  7.677281  1.020562
C  7.191804  8.090314  8.738565
C  4.024730  24.758314  8.979531
C  4.177219  25.245686  3.073499
C  7.344293  8.577686  2.832533
H  6.957788  8.874043  9.220497
H  4.258746  25.542043  8.497599
H  4.411234  24.461957  2.591567
H  7.110277  7.793957  3.314465
C  7.291440  6.872550  9.396497
C  3.925094  23.540550  8.321599
C  4.077583  26.463450  2.415567
C  7.443929  9.795450  3.490465
H  7.131080  6.820546  10.330831
H  4.085453  23.488546  7.387265
H  4.237942  26.515454  1.481233
H  7.283569  9.847454  4.424799
C  7.624660  5.734125  8.689426
C  3.591874  22.402125  9.028669
C  3.744362  27.601875  3.122637
C  7.777149  10.933875  2.783395
H  7.690471  4.903726  9.147262
H  3.526062  21.571726  8.570833
H  3.678551  28.432274  2.664802
H  7.842960  11.764274  3.241230
C  5.801029  3.798971  7.040462
C  5.415504  20.466971  10.677633
C  5.567993  29.537029  4.771601
C  5.953518  12.869029  1.134431
C  5.014762  4.741046  6.363159
C  6.201772  21.409046  11.354937
C  6.354261  28.594954  5.448905
C  5.167251  11.926954  0.457127
H  5.370025  5.193749  5.607187
H  6.151486  21.861749  0.298845
H  5.998998  28.142251  6.204877
H  5.217536  11.474251  11.513218
C  3.724843  5.019068  6.785912
C  7.491690  21.687068  10.932183
C  7.644179  28.316932  5.026151
C  3.877332  11.648932  0.879881
H  3.192219  5.643785  6.308823
H  8.024315  22.311785  11.409272
H  8.176803  27.692215  5.503240
H  3.344708  11.024215  0.402791
C  3.215641  4.386018  7.902034
C  8.000893  21.054018  9.816061
C  8.153382  28.949982  3.910029
C  3.368130  12.281982  1.996002
H  2.335551  4.583700  8.199934
H  8.880982  21.251700  9.518161
H  9.033471  28.752300  3.612129
H  2.488040  12.084300  2.293903
C  3.987388  3.465611  8.585598
C  7.229146  20.133611  9.132497
C  7.381635  29.870389  3.226465
C  4.139877  13.202389  2.679567
H  3.638895  3.033576  9.355154
H  7.577638  19.701576  8.362941
H  7.730127  30.302424  2.456909
H  3.791384  13.634424  3.449123
C  5.270785  3.174254  8.148670
C  5.945749  19.842254  9.569425
C  6.098238  30.161746  3.663393
C  5.423273  13.493746  2.242638
H  5.791872  2.533536  8.620444
H  5.424662  19.201536  9.097651
H  5.577150  30.802464  3.191620
H  5.944361  14.134464  2.714412
C  6.541644  1.116423  5.941114
C  4.674889  17.784423  11.776982
C  4.827378  32.219577  5.870950
C  6.694133  15.551577  0.035082
C  5.262871  1.220764  5.403192
C  6.258640  17.888764  0.502840
C  6.106151  32.115236  6.408871
C  5.110382  15.447236  11.309224
H  4.964064  2.050164  5.053201
H  6.557447  18.718164  0.852831
H  6.404958  31.285836  6.758863
H  4.811575  14.617836  10.959233
C  6.948854  33.221658  6.437693
C  4.267680  16.553658  11.280403
C  4.420169  0.114342  5.374371
C  7.101342  16.782342  0.531661
H  7.820992  33.132650  6.804930
H  3.395541  16.464650  10.913165
H  3.548030  0.203350  5.007134
H  7.973481  16.871350  0.898898
