28
qmof-1cf625b
Cd  2.755024  0.628174  3.972270
Cd  -0.055638  3.650876  9.254965
Cd  -1.001233  7.930792  6.593121
Cd  1.809319  4.908089  1.310531
H  -1.060280  7.035594  3.866616
H  1.868206  5.802806  9.149417
H  2.813997  1.523371  6.698775
H  -0.114470  2.756074  1.416079
C  0.823019  3.413808  4.696950
C  1.876325  0.865351  9.979645
C  0.930459  5.145414  5.868546
C  -0.122333  7.693530  0.585640
C  1.329156  4.785722  4.490080
C  -0.521376  8.052796  9.772669
C  0.424305  3.773415  6.075311
C  2.275313  0.505999  0.792616
O  0.783707  2.380460  3.971108
O  1.915586  1.898676  9.253697
O  0.969863  6.178677  6.594389
O  -0.161685  6.660118  1.311693
O  1.881453  5.405466  3.538561
O  -1.073729  7.433135  8.821362
O  -0.128065  3.153671  7.026936
O  2.827520  1.125660  1.743923
O  -0.946463  7.923360  4.282153
O  1.754456  4.915090  9.564848
O  2.700289  0.635606  6.283238
O  -0.000738  3.643876  1.000542
